     Program PWSCF v.7.1 starts on  1Feb2024 at 10:45: 2

     Reading input from /n/holyscratch01/kozinsky_lab/sfalletta/QE/SiO2/SiO2-T600-E0-0/SiO2-scf.inp

     Current dimensions of program PWSCF are:
     Max number of different atomic species (ntypx) = 10
     Max number of k-points (npk) =  40000
     Max angular momentum in pseudopotentials (lmaxx) =  4

     IMPORTANT: XC functional enforced from input :
     Exchange-correlation= PBE
                           (   1   4   3   4   0   0   0)
     Any further DFT definition will be discarded
     Please, verify this is what you really want

     R & G space division:  proc/nbgrp/npool/nimage =     112
     Subspace diagonalization in iterative solution of the eigenvalue problem:
     one sub-group per band group will be used

     Using Slab Decomposition

     bravais-lattice index     =           14
     lattice parameter (alat)  =      18.8417  a.u.
     unit-cell volume          =    6365.9664 (a.u.)^3
     number of atoms/cell      =           72
     number of atomic types    =            2
     number of electrons       =       384.00
     number of Kohn-Sham states=          220
     kinetic-energy cutoff     =     100.0000  Ry
     charge density cutoff     =     800.0000  Ry
     scf convergence threshold =      1.0E-08
     mixing beta               =       0.7000
     number of iterations used =            8  plain     mixing
     Exchange-correlation= PBE
                           (   1   4   3   4   0   0   0)

     Using Berry phase electric field
     In a.u.(Ry)  cartesian system of reference
        0.0000000000
        0.0000000000
        0.0000000000
     In a.u.(Ry)  crystal system of reference
        0.0000000000
        0.0000000000
        0.0000000000
     Number of iterative cycles:   1

     celldm(1)=  18.841714  celldm(2)=   0.866025  celldm(3)=   1.098936
     celldm(4)=   0.000000  celldm(5)=   0.000000  celldm(6)=   0.000000

     crystal axes: (cart. coord. in units of alat)
               a(1) = (   1.000000   0.000000   0.000000 )
               a(2) = (   0.000000   0.866025   0.000000 )
               a(3) = (   0.000000   0.000000   1.098936 )

     reciprocal axes: (cart. coord. in units 2 pi/alat)
               b(1) = (  1.000000  0.000000  0.000000 )
               b(2) = (  0.000000  1.154701  0.000000 )
               b(3) = (  0.000000  0.000000  0.909971 )

     PseudoPot. # 1 for Si read from file:
     /n/holyscratch01/kozinsky_lab/sfalletta/QE/Inputs/Si.upf
     MD5 check sum: 1e49d63d1c5892e9c2567cdfc797a7ef
     Pseudo is Norm-conserving + core correction, Zval =  4.0
     Generated using ONCVPSP code by D. R. Hamann
     Using radial grid of 1510 points,  6 beta functions with:
                l(1) =   0
                l(2) =   0
                l(3) =   1
                l(4) =   1
                l(5) =   2
                l(6) =   2

     PseudoPot. # 2 for O  read from file:
     /n/holyscratch01/kozinsky_lab/sfalletta/QE/Inputs/O.upf
     MD5 check sum: e161f86cb4953fdc9aae83e76c3f29b8
     Pseudo is Norm-conserving + core correction, Zval =  6.0
     Generated using ONCVPSP code by D. R. Hamann
     Using radial grid of  936 points,  5 beta functions with:
                l(1) =   0
                l(2) =   0
                l(3) =   1
                l(4) =   1
                l(5) =   2

     atomic species   valence    mass     pseudopotential
        Si             4.00    28.08550     Si( 1.00)
        O              6.00    15.99900     O ( 1.00)

     No symmetry found

   Cartesian axes

     site n.     atom                  positions (alat units)
         1           Si  tau(   1) = (   0.8841790   0.2115197   0.4435277  )
         2           Si  tau(   2) = (   0.1360088   0.2222864   0.2853458  )
         3           Si  tau(   3) = (   0.2218812   0.8562469   0.0885200  )
         4           O   tau(   4) = (   0.9308211   0.2918639   0.0348738  )
         5           O   tau(   5) = (   0.0934266   0.3688612   0.2281015  )
         6           O   tau(   6) = (   0.0148497   0.1768197   0.3646007  )
         7           O   tau(   7) = (   0.1600976   0.1287525   0.1607726  )
         8           O   tau(   8) = (   0.2613913   0.2713476   0.3654823  )
         9           O   tau(   9) = (   0.3460472   0.0856930   0.5255348  )
        10           Si  tau(  10) = (   0.9033985   0.1907196   1.0162873  )
        11           Si  tau(  11) = (   0.1391701   0.2040026   0.8311631  )
        12           Si  tau(  12) = (   0.2573525   0.0056010   0.6344760  )
        13           O   tau(  13) = (   0.8968923   0.3366024   0.5409982  )
        14           O   tau(  14) = (   0.0687931   0.3117724   0.7281955  )
        15           O   tau(  15) = (   0.0248331   0.1502667   0.9275846  )
        16           O   tau(  16) = (   0.2235411   0.0567707   0.7785986  )
        17           O   tau(  17) = (   0.2659196   0.2933944   0.9161881  )
        18           O   tau(  18) = (   0.3170369   0.0743158   1.0630748  )
        19           Si  tau(  19) = (   0.8516604   0.6618735   0.2663579  )
        20           Si  tau(  20) = (   0.9944742   0.4227857   0.1061941  )
        21           O   tau(  21) = (   0.8018931   0.8022963   0.2069142  )
        22           O   tau(  22) = (   0.8974831   0.5383926   0.1567598  )
        23           O   tau(  23) = (   0.9984479   0.6938415   0.3716775  )
        24           O   tau(  24) = (   0.0809499   0.5007940   0.5494781  )
        25           Si  tau(  25) = (   0.8676133   0.6384507   0.8159685  )
        26           Si  tau(  26) = (   0.9867545   0.4246502   0.6473157  )
        27           O   tau(  27) = (   0.8422788   0.7775415   0.7234786  )
        28           O   tau(  28) = (   0.8983566   0.5249089   0.7197837  )
        29           O   tau(  29) = (   0.9673003   0.6471272   0.9456075  )
        30           O   tau(  30) = (   0.1061179   0.5000669   0.0050833  )
        31           Si  tau(  31) = (   0.3868902   0.2164432   0.4376344  )
        32           Si  tau(  32) = (   0.6446328   0.2189024   0.2674592  )
        33           Si  tau(  33) = (   0.7507768   0.0033077   0.0745000  )
        34           O   tau(  34) = (   0.4104405   0.3475095   0.0298776  )
        35           O   tau(  35) = (   0.5991050   0.3664401   0.2028683  )
        36           O   tau(  36) = (   0.5042362   0.1512355   0.3470391  )
        37           O   tau(  37) = (   0.6660508   0.1183098   0.1433965  )
        38           O   tau(  38) = (   0.7709451   0.2378180   0.3459700  )
        39           O   tau(  39) = (   0.8411716   0.0795476   0.5353827  )
        40           Si  tau(  40) = (   0.3798325   0.2447875   1.0137699  )
        41           Si  tau(  41) = (   0.6482425   0.2420906   0.8386110  )
        42           Si  tau(  42) = (   0.7591926   0.0106095   0.6424946  )
        43           O   tau(  43) = (   0.4187709   0.3316438   0.5574546  )
        44           O   tau(  44) = (   0.6234416   0.3501984   0.7148833  )
        45           O   tau(  45) = (   0.5139708   0.2139188   0.9194135  )
        46           O   tau(  46) = (   0.6861168   0.0989839   0.7499133  )
        47           O   tau(  47) = (   0.7973337   0.2544539   0.9277761  )
        48           O   tau(  48) = (   0.8519542   0.0540641   1.0663444  )
        49           Si  tau(  49) = (   0.1073626   0.6483458   0.4707929  )
        50           Si  tau(  50) = (   0.3514049   0.6648743   0.2817111  )
        51           Si  tau(  51) = (   0.5190647   0.4416472   0.1005606  )
        52           O   tau(  52) = (   0.1203748   0.7609367   0.0117073  )
        53           O   tau(  53) = (   0.2862986   0.7814600   0.1969449  )
        54           O   tau(  54) = (   0.2476810   0.6222691   0.3946360  )
        55           O   tau(  55) = (   0.4304463   0.5683416   0.1718782  )
        56           O   tau(  56) = (   0.4862312   0.6985644   0.3702934  )
        57           O   tau(  57) = (   0.5687648   0.5330479   0.5371780  )
        58           Si  tau(  58) = (   0.1019757   0.6316106   1.0197174  )
        59           Si  tau(  59) = (   0.3706355   0.6428677   0.8062178  )
        60           Si  tau(  60) = (   0.5203816   0.4265157   0.6439699  )
        61           O   tau(  61) = (   0.1274837   0.7858289   0.5587173  )
        62           O   tau(  62) = (   0.3606692   0.7487659   0.6915106  )
        63           O   tau(  63) = (   0.2350760   0.5985564   0.9173585  )
        64           O   tau(  64) = (   0.4236122   0.5054708   0.7534116  )
        65           O   tau(  65) = (   0.4768336   0.6816356   0.9158240  )
        66           O   tau(  66) = (   0.5951865   0.5237415   1.0898234  )
        67           Si  tau(  67) = (   0.6196885   0.6595226   0.4531891  )
        68           O   tau(  68) = (   0.6371378   0.7782235   0.0078980  )
        69           O   tau(  69) = (   0.7360536   0.6221939   0.3603382  )
        70           Si  tau(  70) = (   0.6084956   0.6623429   1.0006945  )
        71           O   tau(  71) = (   0.6469426   0.7727234   0.5580674  )
        72           O   tau(  72) = (   0.7217676   0.6221518   0.8881807  )

     number of k points=     8
                       cart. coord. in units 2pi/alat
        k(    1) = (   0.0000000   0.0000000   0.0000000), wk =   0.2500000
        k(    2) = (   0.0000000   0.0000000   0.4549855), wk =   0.2500000
        k(    3) = (   0.0000000   0.5773503   0.0000000), wk =   0.2500000
        k(    4) = (   0.0000000   0.5773503   0.4549855), wk =   0.2500000
        k(    5) = (   0.5000000   0.0000000   0.0000000), wk =   0.2500000
        k(    6) = (   0.5000000   0.0000000   0.4549855), wk =   0.2500000
        k(    7) = (   0.5000000   0.5773503   0.0000000), wk =   0.2500000
        k(    8) = (   0.5000000   0.5773503   0.4549855), wk =   0.2500000

     Initial potential from superposition of free atoms

     starting charge     383.9851, renormalised to     384.0000
     Starting wfcs are  288 randomized atomic wfcs

     Self-consistent Calculation

     iteration #  1     ecut=   100.00 Ry     beta= 0.70
     Davidson diagonalization with overlap
     ethr =  1.00E-02,  avg # of iterations =  3.0

     Expectation value of exp(iGx):   (7.30451828008162746E-002,2.86047950961439215E-002)   1.0000000000000000
     Electronic Dipole per cell (Ry a.u.)   3.1657939351876396
     Ionic Dipole per cell (Ry a.u.)   5220.7307615604614

[...]

     Expectation value of exp(iGx):       (0.12000690505044277,-3.93996971885668575E-003)   1.0989361747729789
     Electronic Dipole per cell (Ry a.u.) -0.30590648947334215
     Ionic Dipole per cell (Ry a.u.)   5446.6758445586356
Electronic Dipole on Cartesian axes
           1   3.1657939351876396
           2   8.6549119050615406
           3 -0.30590648947334215
Ionic Dipole on Cartesian axes
           1   5220.7307615604614
           2   4333.8671907424050
           3   5446.6758445586356

     total energy              =   -1788.60323188 Ry
     estimated scf accuracy    <      19.87194028 Ry

[...]

     iteration #  8     ecut=   100.00 Ry     beta= 0.70
     Davidson diagonalization with overlap
     c_bands:  1 eigenvalues not converged
     ethr =  9.11E-08,  avg # of iterations = 15.9

[...]

     iteration # 12     ecut=   100.00 Ry     beta= 0.70
     Davidson diagonalization with overlap
     c_bands:  1 eigenvalues not converged
     c_bands:  1 eigenvalues not converged
     c_bands:  1 eigenvalues not converged
     c_bands:  1 eigenvalues not converged
     c_bands:  1 eigenvalues not converged
     ethr =  1.23E-11,  avg # of iterations = 19.5

[...]

     total energy              =   -1796.74895815 Ry
     estimated scf accuracy    <       0.00000002 Ry

     iteration # 13     ecut=   100.00 Ry     beta= 0.70
     Davidson diagonalization with overlap
     ethr =  4.98E-12,  avg # of iterations =  6.6

[...]

     Expectation value of exp(iGx):   (6.99285573245604121E-003,1.36093089443934286E-002)  0.86602540378443849
     Electronic Dipole per cell (Ry a.u.)   8.0516510227180387
     Ionic Dipole per cell (Ry a.u.)   4333.8671907424050

     Expectation value of exp(iGx):  (7.41294082280841288E-002,-2.35645033720324228E-003)   1.0989361747729789
     Electronic Dipole per cell (Ry a.u.) -0.29619624369381281
     Ionic Dipole per cell (Ry a.u.)   5446.6758445586356
Electronic Dipole on Cartesian axes
           1   3.0358384444346047
           2   8.0516510227180387
           3 -0.29619624369381281
Ionic Dipole on Cartesian axes
           1   5220.7307615604614
           2   4333.8671907424050
           3   5446.6758445586356

     End of self-consistent calculation

          k = 0.0000 0.0000 0.0000 (107453 PWs)   bands (ev):

   -17.9839 -17.7255 -17.6495 -17.2941 -17.1771 -17.0415 -17.0115 -16.8722
   -16.7854 -16.6626 -16.5565 -16.4687 -16.3932 -16.2408 -16.2258 -16.1510
   -16.1155 -16.0755 -15.8980 -15.8558 -15.7866 -15.6885 -15.6311 -15.5782
   -15.5249 -15.4605 -15.3988 -15.3124 -15.2084 -15.1767 -15.0985 -15.0726
   -15.0493 -14.9913 -14.9290 -14.8710 -14.7960 -14.6273 -14.5848 -14.5086
   -14.4907 -14.3732 -14.2312 -14.2108 -14.0612 -13.6138 -13.1824 -12.9792
    -7.6817  -7.0201  -6.9081  -6.5641  -6.5192  -6.2948  -6.2238  -6.1220
    -5.9595  -5.5913  -5.4211  -5.3272  -5.2526  -5.0983  -5.0889  -4.6492
    -4.6263  -4.4663  -4.3758  -4.1911  -4.0906  -3.9724  -3.9610  -3.8696
    -3.7888  -3.6603  -3.6039  -3.4574  -3.4456  -3.3782  -3.3057  -3.2109
    -3.1679  -3.0954  -3.0740  -2.9992  -2.8918  -2.8199  -2.7037  -2.5940
    -2.5573  -2.4952  -2.3863  -2.2748  -2.1750  -2.0152  -1.9073  -1.7471
    -1.6945  -1.5357  -1.4671  -1.3984  -1.3865  -1.2717  -1.2021  -1.1573
    -1.1543  -1.0707  -1.0268  -1.0062  -0.9111  -0.8904  -0.8465  -0.8193
    -0.7765  -0.7332  -0.7091  -0.6538  -0.6333  -0.5274  -0.4853  -0.3920
    -0.3671  -0.3254  -0.2543  -0.2112  -0.1589  -0.1476  -0.0378  -0.0248
     0.0085   0.0265   0.0518   0.1012   0.1137   0.1691   0.2300   0.2406
     0.2518   0.2887   0.3389   0.3561   0.4276   0.4662   0.4757   0.5584
     0.5793   0.6161   0.6551   0.6750   0.7308   0.7596   0.8309   0.8509
     0.8895   0.9632   0.9735   1.0075   1.0303   1.0857   1.1272   1.1813
     1.1980   1.2298   1.2913   1.3399   1.3653   1.4365   1.4811   1.5105
     1.5735   1.6023   1.6286   1.6874   1.7087   1.7856   1.8212   1.8699
     1.9468   2.0206   2.0682   2.0842   2.1258   2.1692   2.2659   2.3181
     2.4639   2.6157   2.7650   2.8004   2.9025   2.9876   3.0345   3.1594
     7.4912   8.6186   8.8432   9.1668   9.5577   9.6513   9.6952  10.1122
    10.1950  10.2628  10.4388  10.4607  10.5693  10.6482  10.7455  10.7992
    10.8021  10.9041  10.9661  11.0115  11.0541  11.1615  11.1948  11.3526
    11.4374  11.5059  11.5511  11.6073

[...]

          k = 0.5000 0.5774 0.4550 (107528 PWs)   bands (ev):

   -17.9619 -17.7346 -17.6379 -17.3424 -17.1873 -17.0578 -17.0435 -16.8443
   -16.7710 -16.6296 -16.4981 -16.4818 -16.3610 -16.3016 -16.2182 -16.1696
   -16.1597 -16.0674 -15.9154 -15.8401 -15.7662 -15.6777 -15.5935 -15.5884
   -15.5112 -15.4603 -15.3961 -15.3084 -15.2392 -15.1984 -15.1163 -15.0465
   -15.0037 -14.9745 -14.9013 -14.8940 -14.8114 -14.6331 -14.5873 -14.5265
   -14.4965 -14.3739 -14.2472 -14.2136 -14.0592 -13.6185 -13.1854 -12.9808
    -7.4047  -7.0728  -6.9065  -6.7892  -6.5075  -6.4596  -6.4003  -6.0551
    -5.7395  -5.5473  -5.3617  -5.2703  -5.1865  -5.1833  -5.0609  -4.9041
    -4.5879  -4.4500  -4.3871  -4.2584  -4.0983  -3.9692  -3.9235  -3.8202
    -3.7954  -3.6322  -3.5705  -3.4730  -3.4583  -3.3555  -3.2772  -3.2047
    -3.1660  -3.0637  -3.0331  -2.9611  -2.8598  -2.7932  -2.6767  -2.6669
    -2.5824  -2.5372  -2.4584  -2.1663  -2.1350  -2.1242  -1.9345  -1.8063
    -1.5667  -1.5339  -1.4951  -1.4287  -1.4074  -1.2840  -1.2489  -1.1889
    -1.0836  -1.0733  -1.0251  -1.0067  -0.9226  -0.9061  -0.8656  -0.8088
    -0.7779  -0.6961  -0.6757  -0.5938  -0.5756  -0.5250  -0.4937  -0.4302
    -0.3817  -0.3128  -0.2638  -0.2168  -0.2115  -0.1591  -0.1218  -0.0649
    -0.0266   0.0187   0.0668   0.0919   0.1244   0.1810   0.2495   0.2643
     0.3030   0.3508   0.3803   0.3948   0.4349   0.4390   0.4974   0.5419
     0.5718   0.6457   0.6479   0.6737   0.6922   0.7361   0.7822   0.8027
     0.8414   0.9273   1.0037   1.0272   1.0395   1.1048   1.1533   1.1766
     1.2081   1.2689   1.2773   1.3292   1.3369   1.4394   1.4931   1.5072
     1.5705   1.6120   1.6484   1.6618   1.6984   1.7964   1.8472   1.9012
     1.9251   2.0121   2.0657   2.0887   2.1411   2.2102   2.2619   2.3497
     2.5022   2.5515   2.8036   2.8330   2.8545   2.9277   2.9958   3.1631
     8.3037   8.6003   8.7650   8.9926   9.1632   9.3180   9.6317   9.8292
    10.0380  10.1438  10.3599  10.5376  10.6347  10.6547  10.7271  10.8387
    10.8974  10.9747  11.0324  11.1038  11.1302  11.2205  11.2516  11.3134
    11.4194  11.5132  11.5521  11.6339

     highest occupied, lowest unoccupied level (ev):     3.1693    7.4912

!    total energy              =   -1796.74895815 Ry
     estimated scf accuracy    <          1.8E-09 Ry

     The total energy is the sum of the following terms:
     one-electron contribution =    -908.16241267 Ry
     hartree contribution      =     658.74911934 Ry
     xc contribution           =    -486.18454441 Ry
     ewald contribution        =   -1061.15112041 Ry

     convergence has been achieved in  13 iterations

     Forces acting on atoms (cartesian axes, Ry/au):

     atom    1 type  1   force =     0.06018203   -0.06800576    0.18978105
     atom    2 type  1   force =     0.04094642    0.10634105   -0.13886254
     atom    3 type  1   force =    -0.02956212    0.29855774   -0.26003113
     atom    4 type  2   force =     0.00748248    0.05826242    0.06212387
     atom    5 type  2   force =    -0.06516757    0.04955307   -0.05045810
     atom    6 type  2   force =    -0.07190474   -0.09484524    0.08669117
     atom    7 type  2   force =     0.00156480   -0.08129570   -0.04194959
     atom    8 type  2   force =     0.00514117    0.02273181   -0.00748497
     atom    9 type  2   force =    -0.05036146   -0.02493197    0.03342229
     atom   10 type  1   force =     0.04687696    0.02755636    0.02634258
     atom   11 type  1   force =     0.14023330    0.02125872    0.02286642
     atom   12 type  1   force =     0.04344980   -0.18301566   -0.09130747
     atom   13 type  2   force =    -0.01755261    0.02228742    0.02785500
     atom   14 type  2   force =     0.03960090   -0.04222432    0.04400737
     atom   15 type  2   force =     0.08784957   -0.02237565   -0.03560657
     atom   16 type  2   force =    -0.11873974    0.18754774    0.06911179
     atom   17 type  2   force =    -0.13518426   -0.03099612   -0.09486588
     atom   18 type  2   force =     0.01621384    0.05208050    0.04338138
     atom   19 type  1   force =     0.21084358   -0.03118059    0.00836250
     atom   20 type  1   force =     0.15826897   -0.00689387    0.00141598
     atom   21 type  2   force =     0.09745247   -0.06053107    0.03608067
     atom   22 type  2   force =    -0.08389993    0.09347399    0.06721226
     atom   23 type  2   force =    -0.21399812   -0.00733164   -0.17085111
     atom   24 type  2   force =     0.08458480    0.13077002   -0.06539861
     atom   25 type  1   force =    -0.11162525    0.20839306    0.11274720
     atom   26 type  1   force =     0.04348423   -0.16553014   -0.11330303
     atom   27 type  2   force =     0.15713202   -0.16617313    0.12817815
     atom   28 type  2   force =    -0.05316642   -0.03510900    0.00811741
     atom   29 type  2   force =    -0.10956136    0.02308175   -0.10538051
     atom   30 type  2   force =    -0.06650362   -0.11241715    0.08741322
     atom   31 type  1   force =     0.08714091    0.00610282    0.16008310
     atom   32 type  1   force =    -0.26502389   -0.03286568   -0.11929609
     atom   33 type  1   force =    -0.09969363   -0.00316166    0.00238642
     atom   34 type  2   force =    -0.01949523   -0.02606574    0.01300012
     atom   35 type  2   force =     0.13028405   -0.13417445    0.15672547
     atom   36 type  2   force =     0.10382091    0.07594088   -0.04529187
     atom   37 type  2   force =    -0.03428265    0.08602777    0.00446315
     atom   38 type  2   force =     0.00687530    0.05865514   -0.01295039
     atom   39 type  2   force =     0.10504305    0.12049572   -0.14210231
     atom   40 type  1   force =    -0.02757542   -0.19976470    0.00626691
     atom   41 type  1   force =     0.10895419   -0.10073822   -0.06465233
     atom   42 type  1   force =    -0.19657565   -0.10607969   -0.02638797
     atom   43 type  2   force =     0.00516768   -0.06080508   -0.05626201
     atom   44 type  2   force =     0.24542301   -0.17108442    0.20275954
     atom   45 type  2   force =    -0.00027113    0.01280622    0.03801319
     atom   46 type  2   force =    -0.07202409    0.11712236    0.07479796
     atom   47 type  2   force =    -0.24129349    0.11269509   -0.16245933
     atom   48 type  2   force =     0.00682906   -0.10677422    0.02721713
     atom   49 type  1   force =     0.08478790   -0.04171275    0.07279209
     atom   50 type  1   force =     0.16676605   -0.07975277    0.02500116
     atom   51 type  1   force =    -0.18828935    0.19819526   -0.03981750
     atom   52 type  2   force =    -0.02751335    0.03703593    0.01578455
     atom   53 type  2   force =     0.12089454   -0.09675268    0.17652141
     atom   54 type  2   force =    -0.01364100   -0.03792562   -0.00737007
     atom   55 type  2   force =    -0.03948953   -0.05268502   -0.00008205
     atom   56 type  2   force =    -0.01458297    0.04854152   -0.02374876
     atom   57 type  2   force =     0.05187475   -0.03142668   -0.00043685
     atom   58 type  1   force =     0.20735441   -0.01429656   -0.09142889
     atom   59 type  1   force =    -0.12053871   -0.04278113    0.12651034
     atom   60 type  1   force =    -0.29204834    0.17740133   -0.13618643
     atom   61 type  2   force =     0.05700098    0.04349489    0.06338783
     atom   62 type  2   force =    -0.04027621    0.05680216   -0.07233755
     atom   63 type  2   force =    -0.00396699    0.07046324   -0.05751586
     atom   64 type  2   force =     0.03151302   -0.10593226   -0.05947059
     atom   65 type  2   force =     0.03185264    0.07591119    0.05939991
     atom   66 type  2   force =     0.06890578    0.01738967   -0.05875936
     atom   67 type  1   force =    -0.19250601    0.02865255    0.07167947
     atom   68 type  2   force =     0.00405905   -0.00460868   -0.02609971
     atom   69 type  2   force =     0.05438291   -0.09188020   -0.02894698
     atom   70 type  1   force =     0.01206447   -0.08954733   -0.02843282
     atom   71 type  2   force =     0.07455730    0.11826971    0.07122980
     atom   72 type  2   force =     0.00945554   -0.00022654    0.01240533

     Total force =     1.456557     Total SCF correction =     0.000052

     Computing stress (Cartesian axis) and pressure

          total   stress  (Ry/bohr**3)                   (kbar)     P=       93.54
   0.00072271  -0.00018535   0.00017061          106.31      -27.27       25.10
  -0.00018535   0.00045628  -0.00019257          -27.27       67.12      -28.33
   0.00017061  -0.00019257   0.00072855           25.10      -28.33      107.17

     Writing all to output data dir /n/holyscratch01/kozinsky_lab/sfalletta/QE/SiO2/SiO2-T600-E0-0/SiO2.save/

     General routines

     Parallel routines

     Electric-field routines

   This run was terminated on:  12:34:32   1Feb2024

   JOB DONE.