     Program PWSCF v.7.1 starts on  1Feb2024 at 19:23:23

     Reading input from /n/holyscratch01/kozinsky_lab/sfalletta/QE/SiO2/SiO2-T300-E0-0/SiO2-scf.inp

     Current dimensions of program PWSCF are:
     Max number of different atomic species (ntypx) = 10
     Max number of k-points (npk) =  40000
     Max angular momentum in pseudopotentials (lmaxx) =  4

     IMPORTANT: XC functional enforced from input :
     Exchange-correlation= PBE
                           (   1   4   3   4   0   0   0)
     Any further DFT definition will be discarded
     Please, verify this is what you really want

     R & G space division:  proc/nbgrp/npool/nimage =     112
     Subspace diagonalization in iterative solution of the eigenvalue problem:
     one sub-group per band group will be used

     Using Slab Decomposition

     bravais-lattice index     =           14
     lattice parameter (alat)  =      18.8417  a.u.
     unit-cell volume          =    6365.9664 (a.u.)^3
     number of atoms/cell      =           72
     number of atomic types    =            2
     number of electrons       =       384.00
     number of Kohn-Sham states=          220
     kinetic-energy cutoff     =     100.0000  Ry
     charge density cutoff     =     800.0000  Ry
     scf convergence threshold =      1.0E-08
     mixing beta               =       0.7000
     number of iterations used =            8  plain     mixing
     Exchange-correlation= PBE
                           (   1   4   3   4   0   0   0)

     Using Berry phase electric field
     In a.u.(Ry)  cartesian system of reference
        0.0000000000
        0.0000000000
        0.0000000000
     In a.u.(Ry)  crystal system of reference
        0.0000000000
        0.0000000000
        0.0000000000
     Number of iterative cycles:   1

     celldm(1)=  18.841714  celldm(2)=   0.866025  celldm(3)=   1.098936
     celldm(4)=   0.000000  celldm(5)=   0.000000  celldm(6)=   0.000000

     crystal axes: (cart. coord. in units of alat)
               a(1) = (   1.000000   0.000000   0.000000 )
               a(2) = (   0.000000   0.866025   0.000000 )
               a(3) = (   0.000000   0.000000   1.098936 )

     reciprocal axes: (cart. coord. in units 2 pi/alat)
               b(1) = (  1.000000  0.000000  0.000000 )
               b(2) = (  0.000000  1.154701  0.000000 )
               b(3) = (  0.000000  0.000000  0.909971 )

     PseudoPot. # 1 for Si read from file:
     /n/holyscratch01/kozinsky_lab/sfalletta/QE/Inputs/Si.upf
     MD5 check sum: 1e49d63d1c5892e9c2567cdfc797a7ef
     Pseudo is Norm-conserving + core correction, Zval =  4.0
     Generated using ONCVPSP code by D. R. Hamann
     Using radial grid of 1510 points,  6 beta functions with:
                l(1) =   0
                l(2) =   0
                l(3) =   1
                l(4) =   1
                l(5) =   2
                l(6) =   2

     PseudoPot. # 2 for O  read from file:
     /n/holyscratch01/kozinsky_lab/sfalletta/QE/Inputs/O.upf
     MD5 check sum: e161f86cb4953fdc9aae83e76c3f29b8
     Pseudo is Norm-conserving + core correction, Zval =  6.0
     Generated using ONCVPSP code by D. R. Hamann
     Using radial grid of  936 points,  5 beta functions with:
                l(1) =   0
                l(2) =   0
                l(3) =   1
                l(4) =   1
                l(5) =   2

     atomic species   valence    mass     pseudopotential
        Si             4.00    28.08550     Si( 1.00)
        O              6.00    15.99900     O ( 1.00)

     No symmetry found

   Cartesian axes

     site n.     atom                  positions (alat units)
         1           Si  tau(   1) = (   0.8813035   0.2172857   0.4659607  )
         2           Si  tau(   2) = (   0.1343238   0.2333319   0.2914988  )
         3           Si  tau(   3) = (   0.2383927   0.8564063   0.1010430  )
         4           O   tau(   4) = (   0.9214375   0.3207027   0.0064787  )
         5           O   tau(   5) = (   0.1079934   0.3627493   0.2060788  )
         6           O   tau(   6) = (   0.0227171   0.1991313   0.4044137  )
         7           O   tau(   7) = (   0.1229554   0.0989275   0.1822627  )
         8           O   tau(   8) = (   0.2818896   0.2416242   0.3523658  )
         9           O   tau(   9) = (   0.3337240   0.0563689   0.5145374  )
        10           Si  tau(  10) = (   0.8922758   0.1913595   1.0153044  )
        11           Si  tau(  11) = (   0.1336428   0.2131676   0.8251846  )
        12           Si  tau(  12) = (   0.2355664   0.0005642   0.6377606  )
        13           O   tau(  13) = (   0.8749819   0.3387718   0.5661873  )
        14           O   tau(  14) = (   0.0756980   0.3505253   0.7685320  )
        15           O   tau(  15) = (   0.0396649   0.1533708   0.9327688  )
        16           O   tau(  16) = (   0.1401811   0.1215162   0.7044517  )
        17           O   tau(  17) = (   0.2767304   0.2412150   0.8880132  )
        18           O   tau(  18) = (   0.3330279   0.0777264   0.0060730  )
        19           Si  tau(  19) = (   0.8785514   0.6495924   0.2801615  )
        20           Si  tau(  20) = (   0.0142748   0.4209203   0.0814573  )
        21           O   tau(  21) = (   0.8288985   0.7898607   0.2103483  )
        22           O   tau(  22) = (   0.9248525   0.5370326   0.1716546  )
        23           O   tau(  23) = (   0.0019080   0.6754605   0.3723134  )
        24           O   tau(  24) = (   0.0908774   0.5120030   0.5511350  )
        25           Si  tau(  25) = (   0.8834879   0.6569250   0.8315944  )
        26           Si  tau(  26) = (   0.9689181   0.4231548   0.6600762  )
        27           O   tau(  27) = (   0.8406771   0.7849172   0.7408457  )
        28           O   tau(  28) = (   0.8828611   0.5282237   0.7349012  )
        29           O   tau(  29) = (   0.0284158   0.6778976   0.9082347  )
        30           O   tau(  30) = (   0.1008464   0.5006897   1.0854004  )
        31           Si  tau(  31) = (   0.3903945   0.1959841   0.4544257  )
        32           Si  tau(  32) = (   0.6350888   0.2374650   0.2641304  )
        33           Si  tau(  33) = (   0.7426821   0.8580562   0.0964391  )
        34           O   tau(  34) = (   0.3964664   0.3277193   0.0047873  )
        35           O   tau(  35) = (   0.5993086   0.3639969   0.1831634  )
        36           O   tau(  36) = (   0.5337991   0.1747186   0.3725310  )
        37           O   tau(  37) = (   0.6430562   0.1192044   0.1607756  )
        38           O   tau(  38) = (   0.7887605   0.2740375   0.3430855  )
        39           O   tau(  39) = (   0.8278043   0.0860395   0.5278145  )
        40           Si  tau(  40) = (   0.3766000   0.2038943   1.0073310  )
        41           Si  tau(  41) = (   0.6320258   0.2494081   0.8224716  )
        42           Si  tau(  42) = (   0.7352372   0.0055785   0.6452256  )
        43           O   tau(  43) = (   0.4035823   0.3025383   0.5736873  )
        44           O   tau(  44) = (   0.5722260   0.3934746   0.7657649  )
        45           O   tau(  45) = (   0.5240344   0.1808887   0.9320637  )
        46           O   tau(  46) = (   0.6461664   0.1319529   0.7094343  )
        47           O   tau(  47) = (   0.7831219   0.2395221   0.8890653  )
        48           O   tau(  48) = (   0.8376001   0.0555046   1.0794229  )
        49           Si  tau(  49) = (   0.1293853   0.6365260   0.4717336  )
        50           Si  tau(  50) = (   0.3723164   0.6453710   0.2711039  )
        51           Si  tau(  51) = (   0.4873104   0.4334752   0.0847911  )
        52           O   tau(  52) = (   0.1490692   0.7537867   0.0162825  )
        53           O   tau(  53) = (   0.3286530   0.7825382   0.2046074  )
        54           O   tau(  54) = (   0.2587255   0.6093160   0.3838533  )
        55           O   tau(  55) = (   0.3958215   0.5194198   0.1762461  )
        56           O   tau(  56) = (   0.5090152   0.6942657   0.3312086  )
        57           O   tau(  57) = (   0.5597162   0.5079511   0.4994732  )
        58           Si  tau(  58) = (   0.1410025   0.6363916   1.0049239  )
        59           Si  tau(  59) = (   0.3787302   0.6676836   0.8184427  )
        60           Si  tau(  60) = (   0.4745499   0.4452287   0.6270602  )
        61           O   tau(  61) = (   0.1421809   0.7626708   0.5703254  )
        62           O   tau(  62) = (   0.3286902   0.8031147   0.7565298  )
        63           O   tau(  63) = (   0.2749111   0.6119889   0.9202941  )
        64           O   tau(  64) = (   0.3804002   0.5668101   0.6818974  )
        65           O   tau(  65) = (   0.5207367   0.6862050   0.8906139  )
        66           O   tau(  66) = (   0.5723724   0.5167219   1.0749096  )
        67           Si  tau(  67) = (   0.6146768   0.6408628   0.4341361  )
        68           O   tau(  68) = (   0.6369814   0.7597964   0.0283921  )
        69           O   tau(  69) = (   0.7680506   0.6118465   0.3794012  )
        70           Si  tau(  70) = (   0.6210997   0.6519002   1.0005310  )
        71           O   tau(  71) = (   0.6322835   0.7869101   0.5598266  )
        72           O   tau(  72) = (   0.7704657   0.6311612   0.9433399  )

     number of k points=     8
                       cart. coord. in units 2pi/alat
        k(    1) = (   0.0000000   0.0000000   0.0000000), wk =   0.2500000
        k(    2) = (   0.0000000   0.0000000   0.4549855), wk =   0.2500000
        k(    3) = (   0.0000000   0.5773503   0.0000000), wk =   0.2500000
        k(    4) = (   0.0000000   0.5773503   0.4549855), wk =   0.2500000
        k(    5) = (   0.5000000   0.0000000   0.0000000), wk =   0.2500000
        k(    6) = (   0.5000000   0.0000000   0.4549855), wk =   0.2500000
        k(    7) = (   0.5000000   0.5773503   0.0000000), wk =   0.2500000
        k(    8) = (   0.5000000   0.5773503   0.4549855), wk =   0.2500000

     Initial potential from superposition of free atoms

     starting charge     383.9851, renormalised to     384.0000
     Starting wfcs are  288 randomized atomic wfcs

     Self-consistent Calculation

     iteration #  1     ecut=   100.00 Ry     beta= 0.70
     Davidson diagonalization with overlap
     ethr =  1.00E-02,  avg # of iterations =  3.0

     Expectation value of exp(iGx):  (6.78979412122455717E-002,-3.46641024405928977E-002)   1.0000000000000000
     Electronic Dipole per cell (Ry a.u.)  -4.0037091767685267
     Ionic Dipole per cell (Ry a.u.)   4797.7395854892329

[...]

     Expectation value of exp(iGx):        (0.11775144108837661,1.32001168472099806E-002)   1.0989361747729789
     Electronic Dipole per cell (Ry a.u.)   1.0405433090466778
     Ionic Dipole per cell (Ry a.u.)   5445.5764487352608
Electronic Dipole on Cartesian axes
           1  -4.0037091767685267
           2  -7.9970727632324126
           3   1.0405433090466778
Ionic Dipole on Cartesian axes
           1   4797.7395854892329
           2   4434.4358181568914
           3   5445.5764487352608

     total energy              =   -1789.29461727 Ry
     estimated scf accuracy    <      19.24569387 Ry

[...]

     iteration #  6     ecut=   100.00 Ry     beta= 0.70
     Davidson diagonalization with overlap
     c_bands:  1 eigenvalues not converged
     ethr =  7.23E-06,  avg # of iterations = 12.6

[...]

     iteration # 11     ecut=   100.00 Ry     beta= 0.70
     Davidson diagonalization with overlap
     ethr =  1.78E-10,  avg # of iterations = 10.8

[...]

     total energy              =   -1797.19767565 Ry
     estimated scf accuracy    <       0.00000003 Ry

     iteration # 13     ecut=   100.00 Ry     beta= 0.70
     Davidson diagonalization with overlap
     c_bands:  1 eigenvalues not converged
     ethr =  6.70E-12,  avg # of iterations = 12.9

[...]

     Expectation value of exp(iGx):  (7.45015996798451680E-003,-1.33955160179468520E-002)  0.86602540378443849
     Electronic Dipole per cell (Ry a.u.)  -7.8098610896624825
     Ionic Dipole per cell (Ry a.u.)   4434.4358181568914

     Expectation value of exp(iGx):   (7.38192433264643066E-002,5.23836139784462397E-003)   1.0989361747729789
     Electronic Dipole per cell (Ry a.u.)  0.66032309079732132
     Ionic Dipole per cell (Ry a.u.)   5445.5764487352608
Electronic Dipole on Cartesian axes
           1  -4.1820258750353920
           2  -7.8098610896624816
           3  0.66032309079732132
Ionic Dipole on Cartesian axes
           1   4797.7395854892329
           2   4434.4358181568914
           3   5445.5764487352608

     End of self-consistent calculation

          k = 0.0000 0.0000 0.0000 (107453 PWs)   bands (ev):

   -17.5471 -17.3535 -17.1434 -16.9709 -16.9336 -16.9051 -16.8203 -16.6364
   -16.5549 -16.4649 -16.4587 -16.4062 -16.2976 -16.1851 -16.0462 -15.9938
   -15.9739 -15.8857 -15.8622 -15.8141 -15.7351 -15.6990 -15.6296 -15.5243
   -15.4321 -15.3781 -15.3641 -15.3168 -15.2641 -15.2383 -15.2076 -15.1442
   -15.0728 -15.0355 -14.9672 -14.9172 -14.8943 -14.8117 -14.7346 -14.6410
   -14.3945 -14.3751 -14.3357 -14.3066 -14.0565 -14.0352 -13.7846 -13.6674
    -7.4479  -6.8124  -6.5828  -6.4375  -6.3785  -6.2874  -6.0446  -5.9772
    -5.8431  -5.3846  -5.3203  -5.2203  -5.1562  -5.0944  -4.8257  -4.6494
    -4.4315  -4.3848  -4.2407  -4.1269  -4.0500  -3.9854  -3.8534  -3.7487
    -3.6968  -3.6244  -3.5937  -3.4720  -3.3797  -3.2626  -3.2311  -3.1847
    -3.1341  -3.1049  -3.0555  -3.0309  -2.9204  -2.8740  -2.8179  -2.6440
    -2.5715  -2.5549  -2.5027  -2.3336  -2.2628  -2.0554  -1.9571  -1.8165
    -1.4005  -1.3471  -1.3141  -1.2356  -1.1137  -1.0845  -1.0424  -0.9999
    -0.9365  -0.9248  -0.8519  -0.8371  -0.8185  -0.7885  -0.6771  -0.6215
    -0.5808  -0.5715  -0.5367  -0.4709  -0.4448  -0.4283  -0.3519  -0.3261
    -0.3089  -0.2061  -0.1866  -0.1543  -0.1486  -0.0845  -0.0536  -0.0107
     0.0197   0.0444   0.0511   0.1155   0.1628   0.1949   0.2172   0.2721
     0.2999   0.3267   0.3610   0.3834   0.4350   0.4693   0.4928   0.5294
     0.5597   0.6420   0.6777   0.6969   0.7377   0.7949   0.8118   0.8793
     0.8947   0.9131   0.9331   0.9675   0.9938   1.0275   1.0607   1.1024
     1.1548   1.1689   1.2064   1.2557   1.2747   1.3281   1.3759   1.4357
     1.4525   1.4875   1.5352   1.5842   1.6264   1.6551   1.7028   1.7396
     1.7859   1.8242   1.9157   1.9398   2.0423   2.0986   2.1415   2.1974
     2.2214   2.3425   2.4148   2.5356   2.5453   2.5794   2.6774   2.7180
     7.6805   9.2063   9.4115   9.5454   9.7221   9.7962  10.1293  10.2679
    10.3084  10.5388  10.6512  10.7007  10.7733  10.9153  10.9199  10.9756
    11.0917  11.1584  11.2146  11.2656  11.2983  11.3330  11.3603  11.4355
    11.5188  11.5723  11.6103  11.6467

[...]

          k = 0.5000 0.5774 0.4550 (107528 PWs)   bands (ev):

   -17.4584 -17.3850 -17.2276 -17.0319 -16.9464 -16.8622 -16.7760 -16.6598
   -16.5504 -16.4801 -16.4636 -16.4022 -16.2505 -16.2025 -16.1243 -16.0065
   -15.9342 -15.8966 -15.8232 -15.7641 -15.7090 -15.6888 -15.5675 -15.5244
   -15.4716 -15.3907 -15.3545 -15.3225 -15.2674 -15.2426 -15.2178 -15.1365
   -15.0615 -15.0177 -14.9832 -14.9280 -14.8821 -14.8525 -14.7328 -14.6400
   -14.4214 -14.3691 -14.3420 -14.3064 -14.0580 -14.0343 -13.7930 -13.6673
    -7.0065  -6.8776  -6.8009  -6.5094  -6.4656  -6.3499  -6.2376  -5.9430
    -5.6052  -5.4741  -5.3590  -5.2202  -5.1578  -4.9800  -4.9148  -4.8237
    -4.3923  -4.2498  -4.1905  -4.1011  -4.0538  -3.9584  -3.9174  -3.8375
    -3.7139  -3.5771  -3.5039  -3.3984  -3.3603  -3.2564  -3.2370  -3.1776
    -3.1553  -3.0932  -3.0384  -2.9445  -2.9278  -2.8332  -2.7672  -2.7175
    -2.6046  -2.5255  -2.4467  -2.3345  -2.3002  -2.1380  -2.0458  -1.8542
    -1.4587  -1.3411  -1.3063  -1.2085  -1.1640  -1.0641  -1.0291  -1.0105
    -0.9636  -0.9018  -0.8188  -0.7938  -0.7588  -0.7276  -0.6934  -0.6587
    -0.5896  -0.5557  -0.5227  -0.5060  -0.4694  -0.4308  -0.4133  -0.3457
    -0.2926  -0.2728  -0.2443  -0.1976  -0.1609  -0.1008  -0.0504  -0.0161
     0.0487   0.0828   0.1016   0.1288   0.1410   0.1881   0.2403   0.2542
     0.3098   0.3462   0.4047   0.4390   0.4666   0.5060   0.5205   0.5611
     0.5768   0.5951   0.6536   0.6776   0.7595   0.7824   0.8081   0.8540
     0.8630   0.8993   0.9230   0.9780   1.0035   1.0363   1.0880   1.1139
     1.1594   1.1727   1.2034   1.2671   1.3077   1.3242   1.3730   1.4115
     1.4296   1.5071   1.5502   1.5735   1.5838   1.6487   1.6934   1.7257
     1.8043   1.8323   1.9294   1.9725   2.0206   2.0389   2.1549   2.1988
     2.2309   2.3004   2.4361   2.4918   2.5665   2.5891   2.6564   2.7341
     8.7363   8.9363   9.2960   9.3614   9.4771   9.6350   9.6482   9.8161
    10.3803  10.4823  10.6549  10.7895  10.8282  10.9091  10.9748  11.0044
    11.0441  11.0993  11.2245  11.2810  11.2961  11.3341  11.3922  11.4313
    11.5116  11.5732  11.6351  11.6831

     highest occupied, lowest unoccupied level (ev):     2.7341    7.6805

!    total energy              =   -1797.19767565 Ry
     estimated scf accuracy    <          1.7E-09 Ry

     The total energy is the sum of the following terms:
     one-electron contribution =    -879.51678203 Ry
     hartree contribution      =     644.20904337 Ry
     xc contribution           =    -485.47599284 Ry
     ewald contribution        =   -1076.41394416 Ry

     convergence has been achieved in  13 iterations

     Forces acting on atoms (cartesian axes, Ry/au):

     atom    1 type  1   force =    -0.09374588    0.02205085   -0.10163914
     atom    2 type  1   force =    -0.02130189   -0.14761188   -0.05102188
     atom    3 type  1   force =    -0.13286540    0.13957593    0.02941268
     atom    4 type  2   force =    -0.05502623   -0.05601051   -0.00995738
     atom    5 type  2   force =    -0.02932978    0.04636174   -0.06472851
     atom    6 type  2   force =     0.12697002   -0.00350959   -0.02904379
     atom    7 type  2   force =     0.08162912   -0.01837334   -0.00858646
     atom    8 type  2   force =    -0.04337917    0.05241791   -0.06033891
     atom    9 type  2   force =    -0.00899478   -0.01825476    0.05438639
     atom   10 type  1   force =     0.01645749   -0.00086773   -0.16457139
     atom   11 type  1   force =     0.00530769    0.10461497    0.03821401
     atom   12 type  1   force =     0.05338918    0.10637117    0.00470601
     atom   13 type  2   force =    -0.00478726    0.04286283    0.07123891
     atom   14 type  2   force =    -0.07733380    0.09274643   -0.06125486
     atom   15 type  2   force =    -0.15678982   -0.03249146    0.14681949
     atom   16 type  2   force =     0.06174711   -0.17246751   -0.17586201
     atom   17 type  2   force =     0.02763826    0.01084657    0.01695285
     atom   18 type  2   force =     0.02999824    0.03625770   -0.06618682
     atom   19 type  1   force =     0.09855883    0.01059063   -0.12765831
     atom   20 type  1   force =    -0.07037426    0.06315760    0.26027678
     atom   21 type  2   force =     0.02176977   -0.01372106    0.00790959
     atom   22 type  2   force =    -0.01427212   -0.03614397   -0.05257613
     atom   23 type  2   force =     0.11168275    0.03259529    0.05295642
     atom   24 type  2   force =    -0.11048764   -0.18817583    0.14982499
     atom   25 type  1   force =     0.00278412    0.03606796    0.01379563
     atom   26 type  1   force =     0.22547136    0.01510546   -0.04951375
     atom   27 type  2   force =    -0.02149719    0.03507120   -0.00791383
     atom   28 type  2   force =    -0.04167071    0.04803654    0.03413003
     atom   29 type  2   force =    -0.13183179    0.02619691   -0.11814416
     atom   30 type  2   force =     0.11501510    0.07227741   -0.12739438
     atom   31 type  1   force =     0.08791257   -0.06029481    0.01083355
     atom   32 type  1   force =     0.14732708   -0.05457653    0.13213595
     atom   33 type  1   force =    -0.07931402    0.10575403    0.03346332
     atom   34 type  2   force =    -0.01313739    0.04558339    0.04673712
     atom   35 type  2   force =    -0.05288312    0.11126560   -0.05317901
     atom   36 type  2   force =    -0.06924035    0.02423116    0.06511192
     atom   37 type  2   force =     0.09026624   -0.13349666   -0.09878173
     atom   38 type  2   force =    -0.10906932   -0.02914307   -0.06322449
     atom   39 type  2   force =    -0.03342535   -0.11335079    0.08772419
     atom   40 type  1   force =     0.07799897   -0.05627329   -0.01722137
     atom   41 type  1   force =    -0.02067418   -0.07259198    0.03743736
     atom   42 type  1   force =     0.04074945    0.08297148   -0.03997169
     atom   43 type  2   force =     0.02815123    0.10122234    0.05435561
     atom   44 type  2   force =    -0.01644949    0.00522518   -0.06528193
     atom   45 type  2   force =    -0.00703868    0.01819291    0.00527782
     atom   46 type  2   force =     0.01493298   -0.03670714   -0.02105045
     atom   47 type  2   force =     0.03827072    0.02237816    0.06766127
     atom   48 type  2   force =     0.01559112    0.00982448    0.00641230
     atom   49 type  1   force =    -0.08397899    0.07692173   -0.08752223
     atom   50 type  1   force =    -0.09069046   -0.00502083    0.04134671
     atom   51 type  1   force =     0.08440576   -0.06522764   -0.05036176
     atom   52 type  2   force =     0.00426165   -0.00894544   -0.00387081
     atom   53 type  2   force =     0.01137523   -0.00423862    0.00428219
     atom   54 type  2   force =     0.07838085   -0.01339099   -0.04179559
     atom   55 type  2   force =    -0.07208418    0.04819522    0.03299703
     atom   56 type  2   force =     0.06474519    0.02563531    0.01066491
     atom   57 type  2   force =    -0.02163057   -0.06453214    0.06373719
     atom   58 type  1   force =     0.02986803   -0.02715182    0.08232554
     atom   59 type  1   force =     0.03555748   -0.04542776   -0.10371077
     atom   60 type  1   force =     0.03376837   -0.07352669    0.04758220
     atom   61 type  2   force =    -0.04082454   -0.02965230   -0.00349992
     atom   62 type  2   force =    -0.02379225    0.08027962   -0.01910030
     atom   63 type  2   force =    -0.02806919   -0.04548957    0.06851913
     atom   64 type  2   force =     0.02381559   -0.01355050    0.03998357
     atom   65 type  2   force =    -0.06957436    0.05092362   -0.10274059
     atom   66 type  2   force =    -0.00182602   -0.00710853   -0.00558539
     atom   67 type  1   force =     0.13740097    0.12696012    0.10584673
     atom   68 type  2   force =    -0.03697838   -0.03997707   -0.05699416
     atom   69 type  2   force =    -0.20209012   -0.04765705    0.10734410
     atom   70 type  1   force =     0.10956519   -0.02250731    0.16524659
     atom   71 type  2   force =    -0.04995529   -0.16334593   -0.09224210
     atom   72 type  2   force =     0.00365022   -0.00795735    0.00487592

     Total force =     1.102396     Total SCF correction =     0.000050

     Computing stress (Cartesian axis) and pressure

          total   stress  (Ry/bohr**3)                   (kbar)     P=       54.63
   0.00030755   0.00013322   0.00006210           45.24       19.60        9.14
   0.00013322   0.00041436  -0.00007743           19.60       60.95      -11.39
   0.00006210  -0.00007743   0.00039226            9.14      -11.39       57.70

     Writing all to output data dir /n/holyscratch01/kozinsky_lab/sfalletta/QE/SiO2/SiO2-T300-E0-0/SiO2.save/

     General routines

     Parallel routines

     Electric-field routines

   This run was terminated on:  21:11:24   1Feb2024

   JOB DONE.