     Program PWSCF v.7.1 starts on 31Mar2024 at 13:49:51

     Reading input from /n/holyscratch01/kozinsky_lab/sfalletta/QE/BaTiO3/BaTiO3-wall-Ex-0/BaTiO3-scf.inp

     Current dimensions of program PWSCF are:
     Max number of different atomic species (ntypx) = 10
     Max number of k-points (npk) =  40000
     Max angular momentum in pseudopotentials (lmaxx) =  4

     IMPORTANT: XC functional enforced from input :
     Exchange-correlation= PBE
                           (   1   4   3   4   0   0   0)
     Any further DFT definition will be discarded
     Please, verify this is what you really want

     R & G space division:  proc/nbgrp/npool/nimage =      64
     Subspace diagonalization in iterative solution of the eigenvalue problem:
     one sub-group per band group will be used

     Using Slab Decomposition

     bravais-lattice index     =           14
     lattice parameter (alat)  =      22.4844  a.u.
     unit-cell volume          =   12335.5658 (a.u.)^3
     number of atoms/cell      =          135
     number of atomic types    =            3
     number of electrons       =      1080.00
     number of Kohn-Sham states=          540
     kinetic-energy cutoff     =     100.0000  Ry
     charge density cutoff     =     800.0000  Ry
     scf convergence threshold =      1.0E-08
     mixing beta               =       0.7000
     number of iterations used =            8  plain     mixing
     Exchange-correlation= PBE
                           (   1   4   3   4   0   0   0)

     Using Berry phase electric field
     In a.u.(Ry)  cartesian system of reference
        0.0001000000
        0.0000000000
        0.0000000000
     In a.u.(Ry)  crystal system of reference
        0.0001000000
        0.0000000000
        0.0000000000
     Number of iterative cycles:   1

     celldm(1)=  22.484440  celldm(2)=   1.000000  celldm(3)=   1.085208
     celldm(4)=   0.000000  celldm(5)=   0.000000  celldm(6)=   0.000000

     crystal axes: (cart. coord. in units of alat)
               a(1) = (   1.000000   0.000000   0.000000 )
               a(2) = (   0.000000   1.000000   0.000000 )
               a(3) = (   0.000000   0.000000   1.085208 )

     reciprocal axes: (cart. coord. in units 2 pi/alat)
               b(1) = (  1.000000  0.000000  0.000000 )
               b(2) = (  0.000000  1.000000  0.000000 )
               b(3) = (  0.000000  0.000000  0.921483 )

     PseudoPot. # 1 for Ba read from file:
     /n/holyscratch01/kozinsky_lab/sfalletta/QE/Inputs/Ba.upf
     MD5 check sum: d1993ebf099ea5c29fdb9ecc5bd2bc91
     Pseudo is Norm-conserving + core correction, Zval = 10.0
     Generated using ONCVPSP code by D. R. Hamann
     Using radial grid of 1958 points,  6 beta functions with:
                l(1) =   0
                l(2) =   0
                l(3) =   1
                l(4) =   1
                l(5) =   2
                l(6) =   2

     PseudoPot. # 2 for Ti read from file:
     /n/holyscratch01/kozinsky_lab/sfalletta/QE/Inputs/Ti.upf
     MD5 check sum: 0b3868d933a8ea9356727c02a1b807de
     Pseudo is Norm-conserving + core correction, Zval = 12.0
     Generated using ONCVPSP code by D. R. Hamann
     Using radial grid of 1586 points,  6 beta functions with:
                l(1) =   0
                l(2) =   0
                l(3) =   1
                l(4) =   1
                l(5) =   2
                l(6) =   2

     PseudoPot. # 3 for O  read from file:
     /n/holyscratch01/kozinsky_lab/sfalletta/QE/Inputs/O.upf
     MD5 check sum: e161f86cb4953fdc9aae83e76c3f29b8
     Pseudo is Norm-conserving + core correction, Zval =  6.0
     Generated using ONCVPSP code by D. R. Hamann
     Using radial grid of  936 points,  5 beta functions with:
                l(1) =   0
                l(2) =   0
                l(3) =   1
                l(4) =   1
                l(5) =   2

     atomic species   valence    mass     pseudopotential
        Ba            10.00   137.32700     Ba( 1.00)
        Ti            12.00    47.90000     Ti( 1.00)
        O              6.00    15.99900     O ( 1.00)

     No symmetry found

   Cartesian axes

     site n.     atom                  positions (alat units)
         1           Ba  tau(   1) = (   0.1667771   0.1659883   0.0215221  )
         2           Ba  tau(   2) = (   0.1662210   0.1662205   0.3829439  )
         3           Ba  tau(   3) = (   0.1673264   0.1668654   0.7457458  )
         4           Ba  tau(   4) = (   0.1668879   0.4994216   0.0211890  )
         5           Ba  tau(   5) = (   0.1671482   0.5000090   0.3838960  )
         6           Ba  tau(   6) = (   0.1671718   0.4996959   0.7449152  )
         7           Ba  tau(   7) = (   0.1663350   0.8328971   0.0216659  )
         8           Ba  tau(   8) = (   0.1662001   0.8327804   0.3830598  )
         9           Ba  tau(   9) = (   0.1659912   0.8337592   0.7458291  )
        10           Ba  tau(  10) = (   0.4997693   0.1664268  -0.0175034  )
        11           Ba  tau(  11) = (   0.4995109   0.1671833   0.3445562  )
        12           Ba  tau(  12) = (   0.5003099   0.1666304   0.7065571  )
        13           Ba  tau(  13) = (   0.4996958   0.4999061  -0.0180019  )
        14           Ba  tau(  14) = (   0.4997884   0.5001492   0.3445009  )
        15           Ba  tau(  15) = (   0.4999856   0.4994153   0.7057651  )
        16           Ba  tau(  16) = (   0.4994730   0.8330999  -0.0179725  )
        17           Ba  tau(  17) = (   0.4994610   0.8326307   0.3434316  )
        18           Ba  tau(  18) = (   0.5002710   0.8340032   0.7064850  )
        19           Ba  tau(  19) = (   0.8332642   0.1660902   0.0211511  )
        20           Ba  tau(  20) = (   0.8327306   0.1661209   0.3830512  )
        21           Ba  tau(  21) = (   0.8328216   0.1663328   0.7454292  )
        22           Ba  tau(  22) = (   0.8334456   0.4995459   0.0220590  )
        23           Ba  tau(  23) = (   0.8334426   0.4999097   0.3833755  )
        24           Ba  tau(  24) = (   0.8328252   0.4993485   0.7450081  )
        25           Ba  tau(  25) = (   0.8328548   0.8338886   0.0215019  )
        26           Ba  tau(  26) = (   0.8326417   0.8330840   0.3833411  )
        27           Ba  tau(  27) = (   0.8339197   0.8332851   0.7459656  )
        28           Ti  tau(  28) = (   0.0006207   0.0003627   0.1953627  )
        29           Ti  tau(  29) = (  -0.0000786  -0.0007635   0.5570082  )
        30           Ti  tau(  30) = (  -0.0001835   0.0005087   0.9187428  )
        31           Ti  tau(  31) = (   0.0008388   0.3337791   0.1960052  )
        32           Ti  tau(  32) = (  -0.0005935   0.3327777   0.5573725  )
        33           Ti  tau(  33) = (   0.0002184   0.3331879   0.9193709  )
        34           Ti  tau(  34) = (   0.0004805   0.6660875   0.1957277  )
        35           Ti  tau(  35) = (  -0.0004348   0.6662256   0.5572503  )
        36           Ti  tau(  36) = (   0.0001329   0.6664100   0.9192446  )
        37           Ti  tau(  37) = (   0.3326961   0.0001963   0.1588395  )
        38           Ti  tau(  38) = (   0.3341313  -0.0007382   0.5201273  )
        39           Ti  tau(  39) = (   0.3330898  -0.0004038   0.8809157  )
        40           Ti  tau(  40) = (   0.3325220   0.3338094   0.1583261  )
        41           Ti  tau(  41) = (   0.3331597   0.3329070   0.5204208  )
        42           Ti  tau(  42) = (   0.3327366   0.3328482   0.8823817  )
        43           Ti  tau(  43) = (   0.3332997   0.6667788   0.1583127  )
        44           Ti  tau(  44) = (   0.3334132   0.6664160   0.5201131  )
        45           Ti  tau(  45) = (   0.3329682   0.6664871   0.8812592  )
        46           Ti  tau(  46) = (   0.6662683  -0.0003617   0.1588374  )
        47           Ti  tau(  47) = (   0.6670779  -0.0008086   0.5204856  )
        48           Ti  tau(  48) = (   0.6671615  -0.0002615   0.8814636  )
        49           Ti  tau(  49) = (   0.6662397   0.3338041   0.1575030  )
        50           Ti  tau(  50) = (   0.6662024   0.3339211   0.5198706  )
        51           Ti  tau(  51) = (   0.6673272   0.3341104   0.8815604  )
        52           Ti  tau(  52) = (   0.6663398   0.6664523   0.1584256  )
        53           Ti  tau(  53) = (   0.6667308   0.6673641   0.5191157  )
        54           Ti  tau(  54) = (   0.6670482   0.6673357   0.8816988  )
        55           O   tau(  55) = (  -0.0002680   0.1672968   0.1636516  )
        56           O   tau(  56) = (   0.1664293  -0.0004089   0.1645251  )
        57           O   tau(  57) = (  -0.0001102  -0.0007025   0.3393559  )
        58           O   tau(  58) = (  -0.0006273   0.1661836   0.5259712  )
        59           O   tau(  59) = (   0.1671952  -0.0007585   0.5259899  )
        60           O   tau(  60) = (   0.0006787   0.0006639   0.7001382  )
[...]
       121           O   tau( 121) = (   0.6659828   0.5004740   0.5637726  )
       122           O   tau( 122) = (   0.8329828   0.3339097   0.5266808  )
       123           O   tau( 123) = (   0.6668197   0.3330158   0.7380843  )
       124           O   tau( 124) = (   0.6664042   0.5006385   0.9250779  )
       125           O   tau( 125) = (   0.8327004   0.3331897   0.8876106  )
       126           O   tau( 126) = (   0.6663240   0.3339225   0.0144973  )
       127           O   tau( 127) = (   0.6670707   0.8341533   0.2020525  )
       128           O   tau( 128) = (   0.8340576   0.6672188   0.1645584  )
       129           O   tau( 129) = (   0.6673257   0.6666135   0.3759688  )
       130           O   tau( 130) = (   0.6666628   0.8341676   0.5641187  )
       131           O   tau( 131) = (   0.8326477   0.6670023   0.5265568  )
       132           O   tau( 132) = (   0.6664112   0.6660490   0.7375738  )
       133           O   tau( 133) = (   0.6667896   0.8334660   0.9254427  )
       134           O   tau( 134) = (   0.8340403   0.6665347   0.8886101  )
       135           O   tau( 135) = (   0.6662195   0.6667714   0.0142597  )

     number of k points=     1
                       cart. coord. in units 2pi/alat
        k(    1) = (   0.0000000   0.0000000   0.0000000), wk =   2.0000000

     Initial potential from superposition of free atoms

     starting charge    1079.5099, renormalised to    1080.0000
     Starting wfcs are  729 randomized atomic wfcs

     Self-consistent Calculation

     iteration #  1     ecut=   100.00 Ry     beta= 0.70
     Davidson diagonalization with overlap
     ethr =  1.00E-02,  avg # of iterations =  2.0

     Expectation value of exp(iGx):   (7.21873480267703921E-006,1.93998730116586308E-006)   1.0000000000000000
     Electronic Dipole per cell (Ry a.u.)   2.6573152063530947
     Ionic Dipole per cell (Ry a.u.)   13734.085957190531

[...]

     Expectation value of exp(iGx):  (-3.21295026289063814E-005,1.10478167242912476E-005)   1.0852077191500298
     Electronic Dipole per cell (Ry a.u.)   30.869452848904331
     Ionic Dipole per cell (Ry a.u.)   16152.258749944860
Electronic Dipole on Cartesian axes
           1   2.6573152063530947
           2  -2.9753888441267029E-002
           3   30.869452848904334
Ionic Dipole on Cartesian axes
           1   13734.085957190531
           2   13735.445067148443
           3   16152.258749944860

     total energy              =   -7390.65233457 Ry
     estimated scf accuracy    <      52.26858306 Ry

[...]

     total energy              =   -7419.54066550 Ry
     estimated scf accuracy    <       0.00000002 Ry

     iteration # 22     ecut=   100.00 Ry     beta= 0.70
     Davidson diagonalization with overlap
     ethr =  1.40E-12,  avg # of iterations =  5.0

[...]

     Expectation value of exp(iGx):  (2.06727874696361049E-007,-1.02418118738332444E-008)   1.0000000000000000
     Electronic Dipole per cell (Ry a.u.) -0.50103723753751905
     Ionic Dipole per cell (Ry a.u.)   13735.445067148443

     Expectation value of exp(iGx):  (-1.25176906064116204E-006,1.06536939500794733E-006)   1.0852077191500298
     Electronic Dipole per cell (Ry a.u.)   26.762109267740644
     Ionic Dipole per cell (Ry a.u.)   16152.258749944860
Electronic Dipole on Cartesian axes
           1   2.7812673380466926
           2 -0.50103723753751905
           3   26.762109267740644
Ionic Dipole on Cartesian axes
           1   13734.085957190531
           2   13735.445067148443
           3   16152.258749944860

     End of self-consistent calculation

          k = 0.0000 0.0000 0.0000 (208381 PWs)   bands (ev):

   -46.6934 -46.6797 -46.6784 -46.6592 -46.6570 -46.6542 -46.6326 -46.6243
   -46.6080 -46.5962 -46.5544 -46.5460 -46.5447 -46.5441 -46.5420 -46.5372
   -46.5319 -46.5248 -46.5153 -46.5149 -46.5064 -46.5060 -46.5046 -46.5023
   -46.5007 -46.4723 -46.4636 -23.2289 -23.2171 -23.2019 -23.2008 -23.1944
   -23.1865 -23.1745 -23.1612 -23.1489 -23.1109 -23.0950 -23.0875 -23.0777
   -23.0771 -23.0744 -23.0719 -23.0626 -23.0584 -23.0552 -23.0546 -23.0461
   -23.0443 -23.0324 -23.0294 -23.0110 -23.0019 -23.0010 -22.9412 -22.9308
   -22.9295 -22.9231 -22.9205 -22.9185 -22.9142 -22.9066 -22.9037 -22.9016
   -22.8969 -22.8842 -22.8801 -22.8776 -22.8719 -22.8508 -22.8495 -22.8483
   -22.8460 -22.8220 -22.8133 -22.8070 -22.8050 -22.8007 -22.7975 -22.7957
   -22.7844 -22.7830 -22.7798 -22.7793 -22.7788 -22.7765 -22.7731 -22.7723
   -22.7720 -22.7695 -22.7649 -22.7620 -22.7620 -22.7588 -22.7554 -22.7500
   -22.7463 -22.7459 -22.7359 -22.7325 -22.7322 -22.7243 -22.7227 -22.7223
   -22.7158 -22.7146 -22.6962 -22.6857 -15.3344 -15.2989 -15.2922 -15.2674
   -15.2546 -15.2453 -15.2361 -15.2349 -15.2269 -15.2226 -15.2135 -15.2052
   -15.1942 -15.1827 -15.1706 -15.1693 -15.1566 -15.1489 -14.9969 -14.9690
   -14.9608 -14.9283 -14.9125 -14.8983 -14.8947 -14.8816 -14.8565  -7.3582
    -7.3423  -7.3324  -7.2523  -7.2105  -7.1941  -7.1473  -7.1356  -7.1321
    -7.1238  -7.1154  -7.0938  -7.0875  -7.0848  -7.0709  -7.0038  -6.9996
    -6.9793  -6.9760  -6.9111  -6.9041  -6.9038  -6.8957  -6.8925  -6.8889
    -6.8750  -6.8692  -6.7284  -6.7275  -6.7221  -6.7119  -6.7056  -6.6989
    -6.6923  -6.6175  -6.6060  -6.5989  -6.5905  -6.5842  -6.5836  -6.5449
    -6.5302  -6.5113  -6.5102  -6.4985  -6.4908  -6.4847  -6.4814  -6.4806
    -6.4617  -6.4576  -6.4524  -6.4255  -6.4163  -6.3455  -6.3260  -6.2693
    -6.2565  -6.2521  -6.2464  -6.2434  -6.2327  -6.2171  -6.2066  -6.1862
    -6.1733  -6.1653  -6.1535  -6.1409  -6.1348  -6.1072  -6.0967  -6.0493
    -6.0445  -6.0381  -6.0342  -6.0244  -6.0090  -5.9761  -5.9700  -5.9536
    -0.9309  -0.9279  -0.9232  -0.9176  -0.9015  -0.8986  -0.8868  -0.8759
    -0.6982  -0.6942  -0.6913  -0.6872  -0.6796  -0.6776  -0.6554  -0.6526
    -0.6490  -0.6394  -0.6285  -0.6253  -0.5606  -0.5522  -0.5249  -0.5179
    -0.5081  -0.4930  -0.4757  -0.4735  -0.4539  -0.4395  -0.4355  -0.4320
    -0.4254  -0.4192  -0.4154  -0.4135  -0.4127  -0.4092  -0.4024  -0.4021
    -0.3968  -0.3873  -0.3466  -0.3379  -0.3266  -0.3198  -0.3182  -0.3157
    -0.3105  -0.2526  -0.2496  -0.2459  -0.2435  -0.2410  -0.2231  -0.2181
    -0.1431  -0.1392  -0.1338  -0.1280  -0.1260  -0.1214  -0.1056  -0.0992
    -0.0975  -0.0903  -0.0854  -0.0844  -0.0794  -0.0698  -0.0653  -0.0631
    -0.0589  -0.0490  -0.0321  -0.0273  -0.0199   0.0292   0.0338   0.0752
     0.0830   5.6501   5.6567   5.6623   5.6806   5.7498   5.7651   5.7695
     5.7736   5.7811   5.7898   5.8354   5.8413   5.9424   5.9491   5.9502
     5.9544   5.9556   5.9642   5.9806   5.9899   6.0357   6.0473   6.0714
     6.0806   6.0892   6.0919   6.0946   6.1068   6.1145   6.1356   6.1419
     6.2892   6.2973   6.3099   6.3166   6.3245   6.3299   6.3322   6.3483
     6.3538   6.3603   6.3621   6.3688   6.3702   6.3713   6.3747   6.3807
     6.3870   6.4359   6.4388   6.4443   6.4547   6.4789   6.4807   6.4927
     6.5000   6.5038   6.5108   6.5182   6.5298   6.5312   6.5388   6.5891
     6.5977   6.6370   6.6426   6.6761   6.6842   6.6860   6.6961   6.7112
     6.7339   6.7428   6.7449   6.7578   6.7787   6.7915   6.8963   6.9043
     6.9323   6.9332   6.9431   6.9492   6.9685   6.9710   6.9993   7.0042
     7.0064   7.0119   7.0142   7.0223   7.0277   7.0306   7.0432   7.0463
     7.0508   7.0618   7.0639   7.1160   7.1270   7.1364   7.1516   7.1602
     7.1680   7.1836   7.1993   7.2075   7.2145   7.2160   7.2262   7.2284
     7.2373   7.2438   7.2573   7.3520   7.3567   7.3634   7.3771   7.3822
     7.3847   7.3887   7.3891   7.3960   7.4071   7.4278   7.4316   7.4342
     7.4413   7.4460   7.4496   7.4574   7.4641   7.4706   7.5015   7.5120
     7.5259   7.5323   7.5385   7.5442   7.5488   7.5584   7.5639   7.5652
     7.5734   7.6098   7.7266   7.7324   7.8336   7.8489   7.9348   7.9734
     7.9828   7.9875   7.9960   8.0836   8.0982   8.1071   8.1893   8.1941
     8.2037   8.2288   8.2367   8.2415   8.2498   8.2543   8.2561   8.2601
     8.3084   8.3154   8.3203   8.3612   8.3651   8.3669   8.3700   8.3709
     8.3744   8.3794   8.3834   8.3846   8.3878   8.3987   8.4362   8.4492
     8.4759   8.4983   8.5480   8.5684   8.5707   8.5775   8.5866   8.5958
     8.6019   8.6078   8.6810   8.6872   8.6923   8.6962   8.7572   8.7670
     8.7700   8.7834   8.7880   8.7937   8.8006   8.8041   8.8139   8.8234
     8.8273   8.8679   8.8759   8.8840   8.8884   8.9200   8.9231   8.9401
     8.9609   8.9938   9.0090   9.0436   9.0880   9.0950   9.1010   9.1067
     9.1297   9.1411   9.1792   9.1868   9.1945   9.3116   9.3207   9.3283
     9.3354   9.3362   9.3603   9.3736   9.3909   9.4247   9.5828   9.6027
     9.6174   9.6336   9.6673   9.6978

     highest occupied level (ev):     9.6978

!    total energy              =   -7419.54066550 Ry
     estimated scf accuracy    <          7.4E-09 Ry

     The total energy is the sum of the following terms:
     one-electron contribution =   -2202.29181951 Ry
     hartree contribution      =    1722.05513181 Ry
     xc contribution           =   -1515.64223698 Ry
     ewald contribution        =   -5422.28805409 Ry

     convergence has been achieved in  22 iterations

     Forces acting on atoms (cartesian axes, Ry/au):

     atom    1 type  1   force =     0.00091112    0.00173863   -0.05605240
     atom    2 type  1   force =     0.00395008   -0.00080566   -0.05256759
     atom    3 type  1   force =    -0.00211443   -0.00110741   -0.06081925
     atom    4 type  1   force =     0.00061587    0.00295616   -0.05559915
     atom    5 type  1   force =     0.00076071   -0.00037676   -0.05621319
     atom    6 type  1   force =    -0.00189943    0.00104864   -0.05668976
     atom    7 type  1   force =     0.00059703    0.00161936   -0.05641671
     atom    8 type  1   force =     0.00295993    0.00289088   -0.05488542
     atom    9 type  1   force =     0.00181453   -0.00190183   -0.06090564
     atom   10 type  1   force =     0.00236707    0.00027966    0.01041578
     atom   11 type  1   force =     0.00291240   -0.00201442    0.01032152
     atom   12 type  1   force =     0.00051404    0.00098522    0.00789925
     atom   13 type  1   force =     0.00086250    0.00010397    0.01016767
     atom   14 type  1   force =    -0.00081179   -0.00394484    0.00939922
     atom   15 type  1   force =     0.00071990    0.00220531    0.01209470
     atom   16 type  1   force =     0.00109191    0.00263826    0.01111247
     atom   17 type  1   force =     0.00072397    0.00590765    0.01253111
     atom   18 type  1   force =    -0.00128440   -0.00305336    0.00817321
     atom   19 type  1   force =    -0.00212098    0.00192494   -0.05235827
     atom   20 type  1   force =    -0.00049715    0.00203812   -0.05568710
     atom   21 type  1   force =     0.00031659    0.00197262   -0.06029475
     atom   22 type  1   force =    -0.00065912    0.00268155   -0.05711434
     atom   23 type  1   force =    -0.00121104   -0.00100818   -0.05723536
     atom   24 type  1   force =     0.00126574    0.00378635   -0.05695988
     atom   25 type  1   force =     0.00211377   -0.00217771   -0.05396237
     atom   26 type  1   force =     0.00460059    0.00310550   -0.05926433
     atom   27 type  1   force =    -0.00066779   -0.00144153   -0.05962564
     atom   28 type  2   force =    -0.00811567   -0.00517821   -0.05723849
     atom   29 type  2   force =     0.00541724    0.00237874   -0.06880479
     atom   30 type  2   force =     0.00138034   -0.00252613   -0.05880497
     atom   31 type  2   force =    -0.00759285   -0.00502412   -0.07208253
     atom   32 type  2   force =     0.00102251   -0.00370820   -0.06402589
     atom   33 type  2   force =    -0.00187546    0.00083061   -0.06567816
     atom   34 type  2   force =    -0.00398400    0.00671279   -0.07338208
     atom   35 type  2   force =     0.00480460    0.00183918   -0.05348437
     atom   36 type  2   force =    -0.00099757    0.00014440   -0.06561949
     atom   37 type  2   force =     0.03292934    0.00041536    0.12401531
     atom   38 type  2   force =     0.02319416    0.00049257    0.12786186
     atom   39 type  2   force =     0.03182697   -0.00010601    0.13827718
     atom   40 type  2   force =     0.03624816   -0.00353827    0.13150666
     atom   41 type  2   force =     0.02880975   -0.00374802    0.11187769
     atom   42 type  2   force =     0.03589433    0.00237466    0.12766829
     atom   43 type  2   force =     0.02540787   -0.00187378    0.12479766
     atom   44 type  2   force =     0.02737995    0.00303404    0.13566260
     atom   45 type  2   force =     0.03172142   -0.00041618    0.13957425
     atom   46 type  2   force =    -0.02455001    0.00532651    0.12211183
     atom   47 type  2   force =    -0.02961259    0.00610913    0.12532040
     atom   48 type  2   force =    -0.02995988    0.00622669    0.13542203
     atom   49 type  2   force =    -0.02526873   -0.00767269    0.14171462
     atom   50 type  2   force =    -0.02705082   -0.00592226    0.12932809
     atom   51 type  2   force =    -0.03169364   -0.00387603    0.13080675
     atom   52 type  2   force =    -0.02018923    0.00159775    0.11920566
     atom   53 type  2   force =    -0.02928497   -0.00485286    0.14386166
     atom   54 type  2   force =    -0.02957224   -0.00586343    0.12163592
     atom   55 type  3   force =     0.00317593   -0.00204964    0.03102111
     atom   56 type  3   force =    -0.01667138    0.00277165    0.03250090
     atom   57 type  3   force =     0.00008376    0.00246721    0.04545790
     atom   58 type  3   force =     0.00178250    0.00692480    0.02782387
     atom   59 type  3   force =    -0.01997681    0.00313853    0.03235795
     atom   60 type  3   force =    -0.00143128   -0.00199922    0.05961817
[...]
     atom  121 type  3   force =     0.01777121    0.00030244   -0.05921120
     atom  122 type  3   force =     0.01987466   -0.00046107    0.03100894
     atom  123 type  3   force =    -0.00964601    0.00184578   -0.03670266
     atom  124 type  3   force =     0.01867780   -0.00100027   -0.05588616
     atom  125 type  3   force =     0.01954370    0.00074634    0.03442949
     atom  126 type  3   force =    -0.00762603    0.00030318   -0.04171209
     atom  127 type  3   force =     0.01453209   -0.00794804   -0.05483712
     atom  128 type  3   force =     0.00629276   -0.00256128    0.03017159
     atom  129 type  3   force =    -0.01098080    0.00074874   -0.04127644
     atom  130 type  3   force =     0.01749017   -0.00285750   -0.05753449
     atom  131 type  3   force =     0.01749561    0.00014153    0.03142810
     atom  132 type  3   force =    -0.00625476    0.00306601   -0.02342729
     atom  133 type  3   force =     0.01657606   -0.00054609   -0.05736414
     atom  134 type  3   force =     0.01152005    0.00076627    0.02948513
     atom  135 type  3   force =    -0.00780126   -0.00049315   -0.02218864

     Total force =     0.766482     Total SCF correction =     0.000296

     Computing stress (Cartesian axis) and pressure

          total   stress  (Ry/bohr**3)                   (kbar)     P=       48.88
   0.00021821   0.00000028   0.00000042           32.10        0.04        0.06
   0.00000028   0.00012477  -0.00000201            0.04       18.35       -0.29
   0.00000042  -0.00000201   0.00065394            0.06       -0.29       96.20

     Writing all to output data dir /n/holyscratch01/kozinsky_lab/sfalletta/QE/BaTiO3/BaTiO3-wall-Ex-0/BaTiO3.save/

     General routines

     Parallel routines

     Electric-field routines

   This run was terminated on:  19:29:19  31Mar2024

   JOB DONE.