     Program PWSCF v.7.1 starts on 15Feb2024 at 10:38:21

     Reading input from /n/holyscratch01/kozinsky_lab/sfalletta/QE/SiO2/SiO2-sc222-E0-k222-zerofield/SiO2-scf.inp

     Current dimensions of program PWSCF are:
     Max number of different atomic species (ntypx) = 10
     Max number of k-points (npk) =  40000
     Max angular momentum in pseudopotentials (lmaxx) =  4

     IMPORTANT: XC functional enforced from input :
     Exchange-correlation= PBE
                           (   1   4   3   4   0   0   0)
     Any further DFT definition will be discarded
     Please, verify this is what you really want

     Found identity + (  0.0000  0.0000  0.5000) symmetry
     This is a supercell, fractional translations are disabled

     R & G space division:  proc/nbgrp/npool/nimage =     112
     Subspace diagonalization in iterative solution of the eigenvalue problem:
     one sub-group per band group will be used

     Using Slab Decomposition

     bravais-lattice index     =            8
     lattice parameter (alat)  =      18.8417  a.u.
     unit-cell volume          =    6365.9664 (a.u.)^3
     number of atoms/cell      =           72
     number of atomic types    =            2
     number of electrons       =       384.00
     number of Kohn-Sham states=          192
     kinetic-energy cutoff     =     100.0000  Ry
     charge density cutoff     =     800.0000  Ry
     scf convergence threshold =      1.0E-12
     mixing beta               =       0.7000
     number of iterations used =            8  plain     mixing
     Exchange-correlation= PBE
                           (   1   4   3   4   0   0   0)

     Using Berry phase electric field
     In a.u.(Ry)  cartesian system of reference
        0.0000000000
        0.0000000000
        0.0000000000
     In a.u.(Ry)  crystal system of reference
        0.0000000000
        0.0000000000
        0.0000000000
     Number of iterative cycles:   1

     celldm(1)=  18.841714  celldm(2)=   0.866025  celldm(3)=   1.098936
     celldm(4)=   0.000000  celldm(5)=   0.000000  celldm(6)=   0.000000

     crystal axes: (cart. coord. in units of alat)
               a(1) = (   1.000000   0.000000   0.000000 )
               a(2) = (   0.000000   0.866025   0.000000 )
               a(3) = (   0.000000   0.000000   1.098936 )

     reciprocal axes: (cart. coord. in units 2 pi/alat)
               b(1) = (  1.000000  0.000000  0.000000 )
               b(2) = (  0.000000  1.154701  0.000000 )
               b(3) = (  0.000000  0.000000  0.909971 )

     PseudoPot. # 1 for Si read from file:
     /n/holyscratch01/kozinsky_lab/sfalletta/QE/Inputs/Si.upf
     MD5 check sum: 1e49d63d1c5892e9c2567cdfc797a7ef
     Pseudo is Norm-conserving + core correction, Zval =  4.0
     Generated using ONCVPSP code by D. R. Hamann
     Using radial grid of 1510 points,  6 beta functions with:
                l(1) =   0
                l(2) =   0
                l(3) =   1
                l(4) =   1
                l(5) =   2
                l(6) =   2

     PseudoPot. # 2 for O  read from file:
     /n/holyscratch01/kozinsky_lab/sfalletta/QE/Inputs/O.upf
     MD5 check sum: e161f86cb4953fdc9aae83e76c3f29b8
     Pseudo is Norm-conserving + core correction, Zval =  6.0
     Generated using ONCVPSP code by D. R. Hamann
     Using radial grid of  936 points,  5 beta functions with:
                l(1) =   0
                l(2) =   0
                l(3) =   1
                l(4) =   1
                l(5) =   2

     atomic species   valence    mass     pseudopotential
        Si             4.00    28.08550     Si( 1.00)
        O              6.00    15.99900     O ( 1.00)

     No symmetry found

   Cartesian axes

     site n.     atom                  positions (alat units)
         1           Si  tau(   1) = (  -0.1182878   0.2048803   0.4578902  )
         2           Si  tau(   2) = (   0.1317116   0.2281327   0.2747340  )
         3           Si  tau(   3) = (   0.2365745  -0.0000004   0.0915781  )
         4           O   tau(   4) = (  -0.1086666   0.3196418   0.0239383  )
         5           O   tau(   5) = (   0.0811502   0.3672992   0.2070951  )
         6           O   tau(   6) = (   0.0275164   0.1790847   0.3902508  )
         7           O   tau(   7) = (   0.1413336   0.1133713   0.1592166  )
         8           O   tau(   8) = (   0.2775158   0.2539273   0.3423728  )
         9           O   tau(   9) = (   0.3311506   0.0657129   0.5255294  )
        10           Si  tau(  10) = (  -0.1182877   0.2048806   1.0073582  )
        11           Si  tau(  11) = (   0.1317117   0.2281329   0.8242020  )
        12           Si  tau(  12) = (   0.2365744  -0.0000005   0.6410463  )
        13           O   tau(  13) = (  -0.1086663   0.3196416   0.5734064  )
        14           O   tau(  14) = (   0.0811503   0.3672991   0.7565637  )
        15           O   tau(  15) = (   0.0275163   0.1790848   0.9397196  )
        16           O   tau(  16) = (   0.1413337   0.1133717   0.7086855  )
        17           O   tau(  17) = (   0.2775161   0.2539275   0.8918414  )
        18           O   tau(  18) = (   0.3311511   0.0657129   1.0749975  )
        19           Si  tau(  19) = (  -0.1182865   0.6611459   0.2747338  )
        20           Si  tau(  20) = (  -0.0134250   0.4330136   0.0915775  )
        21           O   tau(  21) = (  -0.1688501   0.8003133   0.2070944  )
        22           O   tau(  22) = (  -0.1086655   0.5463850   0.1592162  )
        23           O   tau(  23) = (   0.0275163   0.6869414   0.3423724  )
        24           O   tau(  24) = (   0.0811500   0.4987260   0.5255288  )
        25           Si  tau(  25) = (  -0.1182868   0.6611455   0.8242017  )
        26           Si  tau(  26) = (  -0.0134252   0.4330133   0.6410455  )
        27           O   tau(  27) = (  -0.1688501   0.8003126   0.7565633  )
        28           O   tau(  28) = (  -0.1086661   0.5463848   0.7086850  )
        29           O   tau(  29) = (   0.0275164   0.6869409   0.8918407  )
        30           O   tau(  30) = (   0.0811506   0.4987257   1.0749969  )
        31           Si  tau(  31) = (   0.3817124   0.2048795   0.4578902  )
        32           Si  tau(  32) = (   0.6317128   0.2281322   0.2747345  )
        33           Si  tau(  33) = (   0.7365755   0.0000005   0.0915782  )
        34           O   tau(  34) = (   0.3913335   0.3196411   0.0239394  )
        35           O   tau(  35) = (   0.5811490   0.3673000   0.2070951  )
        36           O   tau(  36) = (   0.5275155   0.1790841   0.3902518  )
        37           O   tau(  37) = (   0.6413336   0.1133715   0.1592168  )
        38           O   tau(  38) = (   0.7775153   0.2539279   0.3423723  )
        39           O   tau(  39) = (   0.8311502   0.0657129   0.5255294  )
        40           Si  tau(  40) = (   0.3817126   0.2048797   1.0073582  )
        41           Si  tau(  41) = (   0.6317129   0.2281323   0.8242022  )
        42           Si  tau(  42) = (   0.7365756   0.0000002   0.6410462  )
        43           O   tau(  43) = (   0.3913338   0.3196409   0.5734072  )
        44           O   tau(  44) = (   0.5811496   0.3672997   0.7565631  )
        45           O   tau(  45) = (   0.5275155   0.1790846   0.9397205  )
        46           O   tau(  46) = (   0.6413337   0.1133715   0.7086856  )
        47           O   tau(  47) = (   0.7775159   0.2539281   0.8918408  )
        48           O   tau(  48) = (   0.8311502   0.0657131   1.0749972  )
        49           Si  tau(  49) = (   0.1317116   0.6378931   0.4578902  )
        50           Si  tau(  50) = (   0.3817119   0.6611452   0.2747348  )
        51           Si  tau(  51) = (   0.4865749   0.4330122   0.0915787  )
        52           O   tau(  52) = (   0.1413345   0.7526544   0.0239390  )
        53           O   tau(  53) = (   0.3311501   0.8003123   0.2070958  )
        54           O   tau(  54) = (   0.2775174   0.6120976   0.3902510  )
        55           O   tau(  55) = (   0.3913334   0.5463841   0.1592171  )
        56           O   tau(  56) = (   0.5275161   0.6869403   0.3423721  )
        57           O   tau(  57) = (   0.5811505   0.4987255   0.5255289  )
        58           Si  tau(  58) = (   0.1317120   0.6378929   1.0073578  )
        59           Si  tau(  59) = (   0.3817121   0.6611451   0.8242022  )
        60           Si  tau(  60) = (   0.4865753   0.4330121   0.6410461  )
        61           O   tau(  61) = (   0.1413342   0.7526544   0.5734078  )
        62           O   tau(  62) = (   0.3311505   0.8003122   0.7565643  )
        63           O   tau(  63) = (   0.2775173   0.6120970   0.9397188  )
        64           O   tau(  64) = (   0.3913339   0.5463845   0.7086850  )
        65           O   tau(  65) = (   0.5275165   0.6869400   0.8918407  )
        66           O   tau(  66) = (   0.5811503   0.4987256   1.0749976  )
        67           Si  tau(  67) = (   0.6317136   0.6378925   0.4578899  )
        68           O   tau(  68) = (   0.6413335   0.7526536   0.0239383  )
        69           O   tau(  69) = (   0.7775153   0.6120976   0.3902516  )
        70           Si  tau(  70) = (   0.6317135   0.6378924   1.0073581  )
        71           O   tau(  71) = (   0.6413337   0.7526534   0.5734063  )
        72           O   tau(  72) = (   0.7775151   0.6120971   0.9397206  )

     number of k points=     8
                       cart. coord. in units 2pi/alat
        k(    1) = (   0.0000000   0.0000000   0.0000000), wk =   0.2500000
        k(    2) = (   0.0000000   0.0000000   0.4549855), wk =   0.2500000
        k(    3) = (   0.0000000   0.5773503   0.0000000), wk =   0.2500000
        k(    4) = (   0.0000000   0.5773503   0.4549855), wk =   0.2500000
        k(    5) = (   0.5000000   0.0000000   0.0000000), wk =   0.2500000
        k(    6) = (   0.5000000   0.0000000   0.4549855), wk =   0.2500000
        k(    7) = (   0.5000000   0.5773503   0.0000000), wk =   0.2500000
        k(    8) = (   0.5000000   0.5773503   0.4549855), wk =   0.2500000

     Initial potential from superposition of free atoms

     starting charge     383.9851, renormalised to     384.0000
     Starting wfcs are  288 randomized atomic wfcs

     Self-consistent Calculation

     iteration #  1     ecut=   100.00 Ry     beta= 0.70
     Davidson diagonalization with overlap
     ethr =  1.00E-02,  avg # of iterations =  2.0

     Expectation value of exp(iGx):  (7.53461525613008248E-002,-1.42069728454694174E-004)   1.0000000000000000
     Electronic Dipole per cell (Ry a.u.)  -1.5992836390216501E-002
     Ionic Dipole per cell (Ry a.u.)   3304.1298547372130

[...]

     Expectation value of exp(iGx):       (0.11687565106782970,-1.05368100226905824E-005)   1.0989361747729789
     Electronic Dipole per cell (Ry a.u.)  -8.4031693208482363E-004
     Ionic Dipole per cell (Ry a.u.)   5622.2366695215997
Electronic Dipole on Cartesian axes
           1  -1.5992836390216501E-002
           2   5.3154176037595020E-004
           3  -8.4031693208482363E-004
Ionic Dipole on Cartesian axes
           1   3304.1298547372130
           2   4246.0379116170097
           3   5622.2366695215997

     total energy              =   -1790.18695984 Ry
     estimated scf accuracy    <      18.51950044 Ry

[...]

     total energy              =   -1797.86808832 Ry
     estimated scf accuracy    <          3.4E-11 Ry

     iteration # 17     ecut=   100.00 Ry     beta= 0.70
     Davidson diagonalization with overlap
     ethr =  1.00E-13,  avg # of iterations =  1.0

[...]

     Expectation value of exp(iGx):  (1.52548813128657902E-002,-5.00659660951090900E-008)  0.86602540378443849
     Electronic Dipole per cell (Ry a.u.)  -2.4107375847871253E-005
     Ionic Dipole per cell (Ry a.u.)   4246.0379116170097

     Expectation value of exp(iGx):  (7.34935041000764205E-002,-1.31341818936703824E-006)   1.0989361747729789
     Electronic Dipole per cell (Ry a.u.)  -1.6657586640461539E-004
     Ionic Dipole per cell (Ry a.u.)   5622.2366695215997
Electronic Dipole on Cartesian axes
           1  -3.7336683664043760E-002
           2  -2.4107375847871250E-005
           3  -1.6657586640461539E-004
Ionic Dipole on Cartesian axes
           1   3304.1298547372130
           2   4246.0379116170097
           3   5622.2366695215997

     End of self-consistent calculation

          k = 0.0000 0.0000 0.0000 (107453 PWs)   bands (ev):

   -17.0402 -16.5965 -16.5965 -16.5842 -16.5842 -16.5760 -16.5182 -16.5104
   -16.5104 -16.1227 -16.1227 -16.1212 -16.0968 -16.0968 -16.0935 -15.6454
   -15.6099 -15.6099 -15.5791 -15.5791 -15.5639 -15.5639 -15.5387 -15.0296
   -15.0226 -15.0226 -15.0109 -15.0080 -15.0080 -14.9808 -14.9798 -14.9798
   -14.9768 -14.9768 -14.9729 -14.9729 -14.9702 -14.9649 -14.9648 -14.9640
   -14.9589 -14.9589 -14.9576 -14.9562 -14.9562 -14.9358 -14.9358 -14.9204
    -7.1464  -6.2286  -6.2286  -6.1980  -6.0567  -6.0567  -6.0439  -6.0379
    -6.0379  -5.1819  -5.0894  -5.0505  -5.0505  -5.0308  -5.0308  -4.3275
    -4.3275  -4.2209  -4.0481  -4.0481  -3.9633  -3.9633  -3.6954  -3.3997
    -3.3997  -3.2487  -3.2378  -3.1924  -3.1836  -3.1836  -3.1785  -3.0989
    -3.0989  -3.0937  -3.0091  -3.0091  -3.0033  -3.0033  -2.9299  -2.9299
    -2.8540  -2.7235  -2.7198  -2.7198  -2.4257  -2.4147  -2.4147  -2.4142
    -0.9774  -0.9774  -0.9452  -0.9226  -0.8175  -0.7989  -0.7989  -0.7630
    -0.7630  -0.6769  -0.6510  -0.6510  -0.6261  -0.6261  -0.4859  -0.4779
    -0.4779  -0.4579  -0.4579  -0.3985  -0.3525  -0.3457  -0.3457  -0.2294
    -0.2099  -0.0441   0.0321   0.0321   0.0569   0.0569   0.0990   0.0990
     0.1115   0.1188   0.1241   0.2021   0.2022   0.2552   0.2552   0.3487
     0.3488   0.3644   0.3644   0.4746   0.4818   0.4860   0.4860   0.6415
     0.6660   0.6816   0.6816   0.6902   0.7060   0.7060   0.8187   0.8187
     0.9187   0.9952   1.0221   1.0221   1.0258   1.0804   1.1147   1.1147
     1.1262   1.1262   1.1442   1.1922   1.1922   1.2464   1.2464   1.3051
     1.3613   1.3825   1.4572   1.4572   1.5287   1.5287   1.5651   1.5658
     1.6426   1.6426   1.7734   1.7734   1.8387   1.8387   1.8634   1.8634
     1.8946   1.9605   1.9836   1.9837   2.0540   2.1285   2.1315   2.1315

[...]

          k = 0.5000 0.5774 0.4550 (107528 PWs)   bands (ev):

   -16.6781 -16.6781 -16.6780 -16.6780 -16.6761 -16.6761 -16.6760 -16.6760
   -16.0949 -16.0949 -16.0949 -16.0949 -16.0866 -16.0866 -16.0865 -16.0865
   -15.4670 -15.4670 -15.4670 -15.4670 -15.4532 -15.4532 -15.4532 -15.4532
   -15.0013 -15.0013 -15.0012 -15.0012 -14.9964 -14.9964 -14.9963 -14.9963
   -14.9817 -14.9817 -14.9816 -14.9816 -14.9772 -14.9772 -14.9772 -14.9772
   -14.9518 -14.9518 -14.9517 -14.9517 -14.9501 -14.9501 -14.9500 -14.9500
    -6.3327  -6.3327  -6.3326  -6.3326  -6.3311  -6.3311  -6.3309  -6.3309
    -5.0944  -5.0944  -5.0943  -5.0943  -5.0942  -5.0942  -5.0941  -5.0941
    -3.9099  -3.9099  -3.9098  -3.9098  -3.9096  -3.9096  -3.9095  -3.9095
    -3.2192  -3.2192  -3.2191  -3.2191  -3.2049  -3.2048  -3.2047  -3.2047
    -2.8901  -2.8901  -2.8900  -2.8900  -2.8837  -2.8837  -2.8836  -2.8836
    -2.7049  -2.7049  -2.7048  -2.7048  -2.6714  -2.6714  -2.6714  -2.6714
    -0.9342  -0.9342  -0.9341  -0.9341  -0.9059  -0.9059  -0.9058  -0.9058
    -0.5746  -0.5746  -0.5746  -0.5746  -0.5725  -0.5725  -0.5725  -0.5725
    -0.3533  -0.3533  -0.3533  -0.3533  -0.3286  -0.3286  -0.3285  -0.3285
    -0.1405  -0.1405  -0.1404  -0.1404  -0.0743  -0.0743  -0.0742  -0.0742
     0.1855   0.1855   0.1855   0.1855   0.2274   0.2274   0.2274   0.2274
     0.5378   0.5378   0.5379   0.5379   0.6091   0.6091   0.6092   0.6092
     0.6785   0.6785   0.6786   0.6786   0.7403   0.7403   0.7404   0.7404
     0.9839   0.9839   0.9839   0.9839   0.9891   0.9891   0.9891   0.9891
     1.2509   1.2509   1.2509   1.2509   1.3068   1.3068   1.3068   1.3068
     1.3772   1.3772   1.3773   1.3773   1.4212   1.4212   1.4213   1.4213
     1.7351   1.7351   1.7351   1.7351   1.8141   1.8141   1.8142   1.8142
     2.0348   2.0348   2.0349   2.0349   2.0893   2.0893   2.0894   2.0894

     highest occupied level (ev):     2.1510

!    total energy              =   -1797.86808832 Ry
     estimated scf accuracy    <          7.7E-13 Ry

     The total energy is the sum of the following terms:
     one-electron contribution =    -855.94695380 Ry
     hartree contribution      =     632.28174916 Ry
     xc contribution           =    -484.71688142 Ry
     ewald contribution        =   -1089.48600225 Ry

     convergence has been achieved in  17 iterations

     Forces acting on atoms (cartesian axes, Ry/au):

     atom    1 type  1   force =     0.00001618   -0.00002292   -0.00001186
     atom    2 type  1   force =     0.00003193    0.00000943   -0.00000905
     atom    3 type  1   force =     0.00000402    0.00001254    0.00000401
     atom    4 type  2   force =     0.00000497    0.00000353   -0.00000533
     atom    5 type  2   force =    -0.00001381    0.00001347   -0.00002106
     atom    6 type  2   force =    -0.00002127    0.00000059    0.00000577
     atom    7 type  2   force =    -0.00000267    0.00000905    0.00001636
     atom    8 type  2   force =    -0.00000287   -0.00000298    0.00000954
     atom    9 type  2   force =    -0.00001056   -0.00000832    0.00001814
     atom   10 type  1   force =     0.00001489   -0.00002570   -0.00000073
     atom   11 type  1   force =     0.00003342    0.00000765    0.00001235
     atom   12 type  1   force =     0.00000426    0.00001467    0.00001327
     atom   13 type  2   force =     0.00000315    0.00000159   -0.00000684
     atom   14 type  2   force =    -0.00001957    0.00002182   -0.00003066
     atom   15 type  2   force =    -0.00000907    0.00000240   -0.00000512
     atom   16 type  2   force =     0.00000134   -0.00000137    0.00000637
     atom   17 type  2   force =    -0.00001296   -0.00000220    0.00000024
     atom   18 type  2   force =    -0.00001073   -0.00000727    0.00001757
     atom   19 type  1   force =    -0.00001586    0.00001925   -0.00000033
     atom   20 type  1   force =    -0.00001311   -0.00001729    0.00000353
     atom   21 type  2   force =     0.00001123   -0.00001697    0.00000683
     atom   22 type  2   force =    -0.00000154    0.00001077    0.00001865
     atom   23 type  2   force =     0.00000428   -0.00000186    0.00001319
     atom   24 type  2   force =    -0.00000310    0.00000103    0.00000900
     atom   25 type  1   force =    -0.00001298    0.00001656    0.00002064
     atom   26 type  1   force =    -0.00001239   -0.00001255    0.00001503
     atom   27 type  2   force =     0.00000329   -0.00000543   -0.00000534
     atom   28 type  2   force =     0.00000320   -0.00000083    0.00000759
     atom   29 type  2   force =    -0.00000397   -0.00000128    0.00000538
     atom   30 type  2   force =    -0.00000340    0.00000176    0.00000888
     atom   31 type  1   force =     0.00000480   -0.00001008   -0.00000047
     atom   32 type  1   force =    -0.00001474    0.00002425   -0.00001162
     atom   33 type  1   force =    -0.00004321   -0.00001051   -0.00001534
     atom   34 type  2   force =     0.00000102   -0.00000618   -0.00001381
     atom   35 type  2   force =     0.00001247   -0.00001964    0.00000791
     atom   36 type  2   force =     0.00001343    0.00000394   -0.00001728
     atom   37 type  2   force =     0.00000214    0.00000694    0.00001485
     atom   38 type  2   force =     0.00001773   -0.00000319    0.00002152
     atom   39 type  2   force =     0.00000311    0.00000741    0.00000382
     atom   40 type  1   force =     0.00000274   -0.00001140    0.00001075
     atom   41 type  1   force =    -0.00000976    0.00002314    0.00001038
     atom   42 type  1   force =    -0.00004198   -0.00001055   -0.00000309
     atom   43 type  2   force =     0.00000067   -0.00000490   -0.00001290
     atom   44 type  2   force =     0.00000651   -0.00001101   -0.00000131
     atom   45 type  2   force =     0.00002449    0.00000547   -0.00002743
     atom   46 type  2   force =     0.00000600   -0.00000306    0.00000483
     atom   47 type  2   force =     0.00000397   -0.00000203    0.00000954
     atom   48 type  2   force =     0.00000234    0.00000783    0.00000412
     atom   49 type  1   force =     0.00004404   -0.00001471   -0.00000564
     atom   50 type  1   force =     0.00003114    0.00001905   -0.00002158
     atom   51 type  1   force =    -0.00002750    0.00001151   -0.00001343
     atom   52 type  2   force =    -0.00001071   -0.00002251   -0.00002483
     atom   53 type  2   force =    -0.00000963    0.00000419   -0.00001570
     atom   54 type  2   force =    -0.00004435   -0.00000041    0.00002114
     atom   55 type  2   force =     0.00000064    0.00000502    0.00001298
     atom   56 type  2   force =     0.00000981   -0.00000509    0.00001818
     atom   57 type  2   force =    -0.00000250   -0.00000099    0.00001163
     atom   58 type  1   force =     0.00004064   -0.00001566    0.00000348
     atom   59 type  1   force =     0.00003523    0.00001715   -0.00000087
     atom   60 type  1   force =    -0.00002741    0.00001275   -0.00000431
     atom   61 type  2   force =    -0.00001137   -0.00002234   -0.00002501
     atom   62 type  2   force =    -0.00001547    0.00001259   -0.00002486
     atom   63 type  2   force =    -0.00003333    0.00000110    0.00001151
     atom   64 type  2   force =     0.00000421   -0.00000431    0.00000406
     atom   65 type  2   force =    -0.00000313   -0.00000387    0.00000684
     atom   66 type  2   force =    -0.00000290   -0.00000043    0.00001149
     atom   67 type  1   force =    -0.00002319   -0.00001697   -0.00000314
     atom   68 type  2   force =     0.00001339    0.00001264    0.00000134
     atom   69 type  2   force =     0.00003708    0.00000421   -0.00003246
     atom   70 type  1   force =    -0.00002206   -0.00001824    0.00000805
     atom   71 type  2   force =     0.00001307    0.00001385    0.00000207
     atom   72 type  2   force =     0.00004629    0.00000592   -0.00004142

     Total force =     0.000227     Total SCF correction =     0.000001

     Computing stress (Cartesian axis) and pressure

          total   stress  (Ry/bohr**3)                   (kbar)     P=        6.78
   0.00004604   0.00000000  -0.00000000            6.77        0.00       -0.00
   0.00000000   0.00004606   0.00000000            0.00        6.78        0.00
  -0.00000000   0.00000000   0.00004623           -0.00        0.00        6.80

     Writing all to output data dir /n/holyscratch01/kozinsky_lab/sfalletta/QE/SiO2/SiO2-sc222-E0-k222-zerofield/SiO2.save/

     General routines

     Parallel routines

     Electric-field routines

   This run was terminated on:  12:57:32  15Feb2024

   JOB DONE.