     Program PWSCF v.7.1 starts on 31Mar2024 at 10:25:45

     Reading input from /n/holyscratch01/kozinsky_lab/sfalletta/QE/BaTiO3/BaTiO3-wall-Ey-0/BaTiO3-scf.inp

     Current dimensions of program PWSCF are:
     Max number of different atomic species (ntypx) = 10
     Max number of k-points (npk) =  40000
     Max angular momentum in pseudopotentials (lmaxx) =  4

     IMPORTANT: XC functional enforced from input :
     Exchange-correlation= PBE
                           (   1   4   3   4   0   0   0)
     Any further DFT definition will be discarded
     Please, verify this is what you really want

     R & G space division:  proc/nbgrp/npool/nimage =      96
     Subspace diagonalization in iterative solution of the eigenvalue problem:
     one sub-group per band group will be used

     Using Slab Decomposition

     bravais-lattice index     =           14
     lattice parameter (alat)  =      22.4844  a.u.
     unit-cell volume          =   12335.5658 (a.u.)^3
     number of atoms/cell      =          135
     number of atomic types    =            3
     number of electrons       =      1080.00
     number of Kohn-Sham states=          540
     kinetic-energy cutoff     =     100.0000  Ry
     charge density cutoff     =     800.0000  Ry
     scf convergence threshold =      1.0E-08
     mixing beta               =       0.7000
     number of iterations used =            8  plain     mixing
     Exchange-correlation= PBE
                           (   1   4   3   4   0   0   0)

     Using Berry phase electric field
     In a.u.(Ry)  cartesian system of reference
        0.0000000000
        0.0001000000
        0.0000000000
     In a.u.(Ry)  crystal system of reference
        0.0000000000
        0.0001000000
        0.0000000000
     Number of iterative cycles:   1

     celldm(1)=  22.484440  celldm(2)=   1.000000  celldm(3)=   1.085208
     celldm(4)=   0.000000  celldm(5)=   0.000000  celldm(6)=   0.000000

     crystal axes: (cart. coord. in units of alat)
               a(1) = (   1.000000   0.000000   0.000000 )
               a(2) = (   0.000000   1.000000   0.000000 )
               a(3) = (   0.000000   0.000000   1.085208 )

     reciprocal axes: (cart. coord. in units 2 pi/alat)
               b(1) = (  1.000000  0.000000  0.000000 )
               b(2) = (  0.000000  1.000000  0.000000 )
               b(3) = (  0.000000  0.000000  0.921483 )

     PseudoPot. # 1 for Ba read from file:
     /n/holyscratch01/kozinsky_lab/sfalletta/QE/Inputs/Ba.upf
     MD5 check sum: d1993ebf099ea5c29fdb9ecc5bd2bc91
     Pseudo is Norm-conserving + core correction, Zval = 10.0
     Generated using ONCVPSP code by D. R. Hamann
     Using radial grid of 1958 points,  6 beta functions with:
                l(1) =   0
                l(2) =   0
                l(3) =   1
                l(4) =   1
                l(5) =   2
                l(6) =   2

     PseudoPot. # 2 for Ti read from file:
     /n/holyscratch01/kozinsky_lab/sfalletta/QE/Inputs/Ti.upf
     MD5 check sum: 0b3868d933a8ea9356727c02a1b807de
     Pseudo is Norm-conserving + core correction, Zval = 12.0
     Generated using ONCVPSP code by D. R. Hamann
     Using radial grid of 1586 points,  6 beta functions with:
                l(1) =   0
                l(2) =   0
                l(3) =   1
                l(4) =   1
                l(5) =   2
                l(6) =   2

     PseudoPot. # 3 for O  read from file:
     /n/holyscratch01/kozinsky_lab/sfalletta/QE/Inputs/O.upf
     MD5 check sum: e161f86cb4953fdc9aae83e76c3f29b8
     Pseudo is Norm-conserving + core correction, Zval =  6.0
     Generated using ONCVPSP code by D. R. Hamann
     Using radial grid of  936 points,  5 beta functions with:
                l(1) =   0
                l(2) =   0
                l(3) =   1
                l(4) =   1
                l(5) =   2

     atomic species   valence    mass     pseudopotential
        Ba            10.00   137.32700     Ba( 1.00)
        Ti            12.00    47.90000     Ti( 1.00)
        O              6.00    15.99900     O ( 1.00)

     No symmetry found

   Cartesian axes

     site n.     atom                  positions (alat units)
         1           Ba  tau(   1) = (   0.1667771   0.1659883   0.0215221  )
         2           Ba  tau(   2) = (   0.1662210   0.1662205   0.3829439  )
         3           Ba  tau(   3) = (   0.1673264   0.1668654   0.7457458  )
         4           Ba  tau(   4) = (   0.1668879   0.4994216   0.0211890  )
         5           Ba  tau(   5) = (   0.1671482   0.5000090   0.3838960  )
         6           Ba  tau(   6) = (   0.1671718   0.4996959   0.7449152  )
         7           Ba  tau(   7) = (   0.1663350   0.8328971   0.0216659  )
         8           Ba  tau(   8) = (   0.1662001   0.8327804   0.3830598  )
         9           Ba  tau(   9) = (   0.1659912   0.8337592   0.7458291  )
        10           Ba  tau(  10) = (   0.4997693   0.1664268  -0.0175034  )
        11           Ba  tau(  11) = (   0.4995109   0.1671833   0.3445562  )
        12           Ba  tau(  12) = (   0.5003099   0.1666304   0.7065571  )
        13           Ba  tau(  13) = (   0.4996958   0.4999061  -0.0180019  )
        14           Ba  tau(  14) = (   0.4997884   0.5001492   0.3445009  )
        15           Ba  tau(  15) = (   0.4999856   0.4994153   0.7057651  )
        16           Ba  tau(  16) = (   0.4994730   0.8330999  -0.0179725  )
        17           Ba  tau(  17) = (   0.4994610   0.8326307   0.3434316  )
        18           Ba  tau(  18) = (   0.5002710   0.8340032   0.7064850  )
        19           Ba  tau(  19) = (   0.8332642   0.1660902   0.0211511  )
        20           Ba  tau(  20) = (   0.8327306   0.1661209   0.3830512  )
        21           Ba  tau(  21) = (   0.8328216   0.1663328   0.7454292  )
        22           Ba  tau(  22) = (   0.8334456   0.4995459   0.0220590  )
        23           Ba  tau(  23) = (   0.8334426   0.4999097   0.3833755  )
        24           Ba  tau(  24) = (   0.8328252   0.4993485   0.7450081  )
        25           Ba  tau(  25) = (   0.8328548   0.8338886   0.0215019  )
        26           Ba  tau(  26) = (   0.8326417   0.8330840   0.3833411  )
        27           Ba  tau(  27) = (   0.8339197   0.8332851   0.7459656  )
        28           Ti  tau(  28) = (   0.0006207   0.0003627   0.1953627  )
        29           Ti  tau(  29) = (  -0.0000786  -0.0007635   0.5570082  )
        30           Ti  tau(  30) = (  -0.0001835   0.0005087   0.9187428  )
        31           Ti  tau(  31) = (   0.0008388   0.3337791   0.1960052  )
        32           Ti  tau(  32) = (  -0.0005935   0.3327777   0.5573725  )
        33           Ti  tau(  33) = (   0.0002184   0.3331879   0.9193709  )
        34           Ti  tau(  34) = (   0.0004805   0.6660875   0.1957277  )
        35           Ti  tau(  35) = (  -0.0004348   0.6662256   0.5572503  )
        36           Ti  tau(  36) = (   0.0001329   0.6664100   0.9192446  )
        37           Ti  tau(  37) = (   0.3326961   0.0001963   0.1588395  )
        38           Ti  tau(  38) = (   0.3341313  -0.0007382   0.5201273  )
        39           Ti  tau(  39) = (   0.3330898  -0.0004038   0.8809157  )
        40           Ti  tau(  40) = (   0.3325220   0.3338094   0.1583261  )
        41           Ti  tau(  41) = (   0.3331597   0.3329070   0.5204208  )
        42           Ti  tau(  42) = (   0.3327366   0.3328482   0.8823817  )
        43           Ti  tau(  43) = (   0.3332997   0.6667788   0.1583127  )
        44           Ti  tau(  44) = (   0.3334132   0.6664160   0.5201131  )
        45           Ti  tau(  45) = (   0.3329682   0.6664871   0.8812592  )
        46           Ti  tau(  46) = (   0.6662683  -0.0003617   0.1588374  )
        47           Ti  tau(  47) = (   0.6670779  -0.0008086   0.5204856  )
        48           Ti  tau(  48) = (   0.6671615  -0.0002615   0.8814636  )
        49           Ti  tau(  49) = (   0.6662397   0.3338041   0.1575030  )
        50           Ti  tau(  50) = (   0.6662024   0.3339211   0.5198706  )
        51           Ti  tau(  51) = (   0.6673272   0.3341104   0.8815604  )
        52           Ti  tau(  52) = (   0.6663398   0.6664523   0.1584256  )
        53           Ti  tau(  53) = (   0.6667308   0.6673641   0.5191157  )
        54           Ti  tau(  54) = (   0.6670482   0.6673357   0.8816988  )
        55           O   tau(  55) = (  -0.0002680   0.1672968   0.1636516  )
        56           O   tau(  56) = (   0.1664293  -0.0004089   0.1645251  )
        57           O   tau(  57) = (  -0.0001102  -0.0007025   0.3393559  )
        58           O   tau(  58) = (  -0.0006273   0.1661836   0.5259712  )
        59           O   tau(  59) = (   0.1671952  -0.0007585   0.5259899  )
        60           O   tau(  60) = (   0.0006787   0.0006639   0.7001382  )
[...]
       121           O   tau( 121) = (   0.6659828   0.5004740   0.5637726  )
       122           O   tau( 122) = (   0.8329828   0.3339097   0.5266808  )
       123           O   tau( 123) = (   0.6668197   0.3330158   0.7380843  )
       124           O   tau( 124) = (   0.6664042   0.5006385   0.9250779  )
       125           O   tau( 125) = (   0.8327004   0.3331897   0.8876106  )
       126           O   tau( 126) = (   0.6663240   0.3339225   0.0144973  )
       127           O   tau( 127) = (   0.6670707   0.8341533   0.2020525  )
       128           O   tau( 128) = (   0.8340576   0.6672188   0.1645584  )
       129           O   tau( 129) = (   0.6673257   0.6666135   0.3759688  )
       130           O   tau( 130) = (   0.6666628   0.8341676   0.5641187  )
       131           O   tau( 131) = (   0.8326477   0.6670023   0.5265568  )
       132           O   tau( 132) = (   0.6664112   0.6660490   0.7375738  )
       133           O   tau( 133) = (   0.6667896   0.8334660   0.9254427  )
       134           O   tau( 134) = (   0.8340403   0.6665347   0.8886101  )
       135           O   tau( 135) = (   0.6662195   0.6667714   0.0142597  )

     number of k points=     1
                       cart. coord. in units 2pi/alat
        k(    1) = (   0.0000000   0.0000000   0.0000000), wk =   2.0000000

     Initial potential from superposition of free atoms

     starting charge    1079.5099, renormalised to    1080.0000
     Starting wfcs are  729 randomized atomic wfcs

     Self-consistent Calculation

     iteration #  1     ecut=   100.00 Ry     beta= 0.70
     Davidson diagonalization with overlap
     ethr =  1.00E-02,  avg # of iterations =  2.0

     Expectation value of exp(iGx):   (7.24093724071129844E-006,1.86058335363783581E-006)   1.0000000000000000
     Electronic Dipole per cell (Ry a.u.)   2.5456947435232151
     Ionic Dipole per cell (Ry a.u.)   13734.085957190531

[...]

     Expectation value of exp(iGx):  (-3.22196816572859938E-005,1.09547591515109450E-005)   1.0852077191500298
     Electronic Dipole per cell (Ry a.u.)   30.907320731264715
     Ionic Dipole per cell (Ry a.u.)   16152.258749944860
Electronic Dipole on Cartesian axes
           1   2.5456947435232151
           2   8.1694905541724441E-002
           3   30.907320731264715
Ionic Dipole on Cartesian axes
           1   13734.085957190531
           2   13735.445067148443
           3   16152.258749944860

     total energy              =   -7390.65222405 Ry
     estimated scf accuracy    <      52.27016099 Ry

[...]

     total energy              =   -7419.54050893 Ry
     estimated scf accuracy    <       0.00000002 Ry

     iteration # 23     ecut=   100.00 Ry     beta= 0.70
     Davidson diagonalization with overlap
     ethr =  1.50E-12,  avg # of iterations =  5.0

[...]

     Expectation value of exp(iGx):  (2.06966603745695162E-007,-2.89526390810550704E-009)   1.0000000000000000
     Electronic Dipole per cell (Ry a.u.) -0.14158157781306910
     Ionic Dipole per cell (Ry a.u.)   13735.445067148443

     Expectation value of exp(iGx):  (-1.25173118396912423E-006,1.06543635302540130E-006)   1.0852077191500298
     Electronic Dipole per cell (Ry a.u.)   26.761604498659082
     Ionic Dipole per cell (Ry a.u.)   16152.258749944860
Electronic Dipole on Cartesian axes
           1   2.4258579594390035
           2 -0.14158157781306910
           3   26.761604498659082
Ionic Dipole on Cartesian axes
           1   13734.085957190531
           2   13735.445067148443
           3   16152.258749944860

     End of self-consistent calculation

          k = 0.0000 0.0000 0.0000 (208381 PWs)   bands (ev):

   -46.6936 -46.6797 -46.6786 -46.6592 -46.6570 -46.6542 -46.6326 -46.6243
   -46.6081 -46.5961 -46.5544 -46.5462 -46.5449 -46.5440 -46.5419 -46.5373
   -46.5318 -46.5249 -46.5155 -46.5148 -46.5065 -46.5060 -46.5047 -46.5025
   -46.5006 -46.4722 -46.4637 -23.2291 -23.2171 -23.2020 -23.2009 -23.1944
   -23.1865 -23.1745 -23.1612 -23.1489 -23.1108 -23.0950 -23.0877 -23.0777
   -23.0772 -23.0743 -23.0721 -23.0627 -23.0585 -23.0551 -23.0546 -23.0460
   -23.0443 -23.0325 -23.0294 -23.0112 -23.0020 -23.0009 -22.9414 -22.9308
   -22.9296 -22.9231 -22.9207 -22.9186 -22.9142 -22.9067 -22.9037 -22.9016
   -22.8970 -22.8842 -22.8801 -22.8776 -22.8719 -22.8508 -22.8496 -22.8484
   -22.8459 -22.8219 -22.8133 -22.8070 -22.8051 -22.8006 -22.7974 -22.7958
   -22.7844 -22.7832 -22.7798 -22.7792 -22.7788 -22.7766 -22.7732 -22.7724
   -22.7720 -22.7697 -22.7650 -22.7621 -22.7621 -22.7588 -22.7556 -22.7500
   -22.7462 -22.7459 -22.7358 -22.7327 -22.7324 -22.7242 -22.7227 -22.7224
   -22.7158 -22.7147 -22.6961 -22.6858 -15.3345 -15.2990 -15.2922 -15.2674
   -15.2546 -15.2453 -15.2361 -15.2349 -15.2269 -15.2226 -15.2136 -15.2052
   -15.1941 -15.1826 -15.1706 -15.1692 -15.1566 -15.1489 -14.9969 -14.9690
   -14.9608 -14.9283 -14.9124 -14.8983 -14.8947 -14.8816 -14.8565  -7.3582
    -7.3423  -7.3324  -7.2523  -7.2105  -7.1941  -7.1473  -7.1356  -7.1321
    -7.1238  -7.1154  -7.0938  -7.0875  -7.0848  -7.0709  -7.0038  -6.9996
    -6.9793  -6.9760  -6.9111  -6.9041  -6.9038  -6.8957  -6.8924  -6.8889
    -6.8750  -6.8692  -6.7284  -6.7275  -6.7221  -6.7119  -6.7056  -6.6989
    -6.6923  -6.6175  -6.6060  -6.5989  -6.5905  -6.5841  -6.5836  -6.5448
    -6.5302  -6.5113  -6.5102  -6.4985  -6.4908  -6.4847  -6.4814  -6.4805
    -6.4617  -6.4577  -6.4524  -6.4255  -6.4163  -6.3455  -6.3260  -6.2692
    -6.2565  -6.2521  -6.2464  -6.2434  -6.2327  -6.2171  -6.2066  -6.1862
    -6.1733  -6.1653  -6.1535  -6.1409  -6.1348  -6.1073  -6.0967  -6.0493
    -6.0444  -6.0381  -6.0342  -6.0244  -6.0090  -5.9760  -5.9700  -5.9536
    -0.9309  -0.9279  -0.9232  -0.9176  -0.9014  -0.8987  -0.8868  -0.8759
    -0.6982  -0.6942  -0.6913  -0.6872  -0.6796  -0.6776  -0.6554  -0.6526
    -0.6490  -0.6394  -0.6285  -0.6253  -0.5607  -0.5522  -0.5249  -0.5179
    -0.5081  -0.4930  -0.4757  -0.4735  -0.4539  -0.4395  -0.4355  -0.4320
    -0.4254  -0.4193  -0.4154  -0.4135  -0.4127  -0.4092  -0.4024  -0.4020
    -0.3968  -0.3873  -0.3466  -0.3379  -0.3266  -0.3198  -0.3182  -0.3157
    -0.3105  -0.2525  -0.2496  -0.2459  -0.2435  -0.2410  -0.2231  -0.2181
    -0.1431  -0.1392  -0.1338  -0.1280  -0.1260  -0.1214  -0.1056  -0.0992
    -0.0975  -0.0903  -0.0854  -0.0844  -0.0794  -0.0697  -0.0653  -0.0631
    -0.0589  -0.0490  -0.0321  -0.0273  -0.0199   0.0292   0.0338   0.0753
     0.0830   5.6501   5.6567   5.6623   5.6806   5.7498   5.7651   5.7695
     5.7736   5.7811   5.7898   5.8354   5.8413   5.9424   5.9491   5.9502
     5.9544   5.9556   5.9642   5.9806   5.9899   6.0357   6.0473   6.0714
     6.0806   6.0892   6.0918   6.0946   6.1068   6.1145   6.1356   6.1418
     6.2892   6.2973   6.3099   6.3165   6.3245   6.3299   6.3322   6.3483
     6.3538   6.3603   6.3621   6.3688   6.3702   6.3713   6.3747   6.3806
     6.3870   6.4359   6.4388   6.4443   6.4546   6.4789   6.4807   6.4927
     6.5000   6.5038   6.5108   6.5182   6.5298   6.5312   6.5388   6.5891
     6.5977   6.6370   6.6426   6.6761   6.6842   6.6861   6.6960   6.7112
     6.7339   6.7427   6.7449   6.7578   6.7787   6.7915   6.8963   6.9043
     6.9323   6.9332   6.9431   6.9492   6.9685   6.9710   6.9993   7.0042
     7.0064   7.0119   7.0142   7.0222   7.0277   7.0306   7.0432   7.0463
     7.0508   7.0618   7.0639   7.1160   7.1270   7.1364   7.1516   7.1602
     7.1680   7.1836   7.1992   7.2075   7.2145   7.2160   7.2262   7.2284
     7.2373   7.2437   7.2572   7.3520   7.3567   7.3634   7.3771   7.3822
     7.3847   7.3887   7.3891   7.3960   7.4071   7.4278   7.4316   7.4342
     7.4413   7.4460   7.4497   7.4574   7.4641   7.4706   7.5015   7.5120
     7.5259   7.5323   7.5385   7.5442   7.5488   7.5583   7.5640   7.5652
     7.5734   7.6098   7.7266   7.7324   7.8337   7.8489   7.9348   7.9734
     7.9828   7.9875   7.9960   8.0836   8.0982   8.1071   8.1893   8.1940
     8.2037   8.2289   8.2368   8.2415   8.2498   8.2543   8.2561   8.2601
     8.3084   8.3154   8.3203   8.3612   8.3651   8.3669   8.3700   8.3709
     8.3744   8.3794   8.3834   8.3846   8.3878   8.3987   8.4362   8.4492
     8.4760   8.4983   8.5480   8.5684   8.5707   8.5776   8.5866   8.5958
     8.6019   8.6078   8.6810   8.6872   8.6923   8.6962   8.7572   8.7670
     8.7700   8.7834   8.7880   8.7937   8.8006   8.8041   8.8139   8.8234
     8.8273   8.8679   8.8759   8.8840   8.8884   8.9200   8.9232   8.9402
     8.9609   8.9938   9.0090   9.0436   9.0880   9.0950   9.1010   9.1067
     9.1297   9.1411   9.1793   9.1868   9.1945   9.3116   9.3207   9.3283
     9.3354   9.3362   9.3604   9.3736   9.3909   9.4247   9.5828   9.6027
     9.6174   9.6336   9.6673   9.6978

     highest occupied level (ev):     9.6978

!    total energy              =   -7419.54050893 Ry
     estimated scf accuracy    <          3.9E-09 Ry

     The total energy is the sum of the following terms:
     one-electron contribution =   -2202.29116582 Ry
     hartree contribution      =    1722.05443677 Ry
     xc contribution           =   -1515.64219543 Ry
     ewald contribution        =   -5422.28805409 Ry

     convergence has been achieved in  23 iterations

     Forces acting on atoms (cartesian axes, Ry/au):

     atom    1 type  1   force =     0.00053735    0.00212418   -0.05604345
     atom    2 type  1   force =     0.00357825   -0.00042053   -0.05255720
     atom    3 type  1   force =    -0.00248219   -0.00072195   -0.06081082
     atom    4 type  1   force =     0.00024357    0.00334393   -0.05559044
     atom    5 type  1   force =     0.00038924    0.00001277   -0.05620289
     atom    6 type  1   force =    -0.00227008    0.00143726   -0.05668036
     atom    7 type  1   force =     0.00022504    0.00200647   -0.05640866
     atom    8 type  1   force =     0.00258788    0.00327897   -0.05487667
     atom    9 type  1   force =     0.00144523   -0.00151367   -0.06089624
     atom   10 type  1   force =     0.00199310    0.00065667    0.01041411
     atom   11 type  1   force =     0.00254093   -0.00163561    0.01032096
     atom   12 type  1   force =     0.00014005    0.00135982    0.00789586
     atom   13 type  1   force =     0.00049051    0.00048232    0.01016595
     atom   14 type  1   force =    -0.00118258   -0.00356725    0.00939853
     atom   15 type  1   force =     0.00034848    0.00258109    0.01209384
     atom   16 type  1   force =     0.00071943    0.00301656    0.01111205
     atom   17 type  1   force =     0.00035347    0.00628358    0.01253207
     atom   18 type  1   force =    -0.00165491   -0.00267282    0.00817260
     atom   19 type  1   force =    -0.00249220    0.00230937   -0.05237068
     atom   20 type  1   force =    -0.00087093    0.00242365   -0.05569836
     atom   21 type  1   force =    -0.00005787    0.00235999   -0.06030468
     atom   22 type  1   force =    -0.00103012    0.00306889   -0.05712659
     atom   23 type  1   force =    -0.00158286   -0.00062084   -0.05724662
     atom   24 type  1   force =     0.00089091    0.00417138   -0.05697073
     atom   25 type  1   force =     0.00174265   -0.00179027   -0.05397238
     atom   26 type  1   force =     0.00422805    0.00349189   -0.05927409
     atom   27 type  1   force =    -0.00104132   -0.00105292   -0.05963617
     atom   28 type  2   force =    -0.00894681   -0.00435542   -0.05724265
     atom   29 type  2   force =     0.00458202    0.00320952   -0.06879833
     atom   30 type  2   force =     0.00055007   -0.00169823   -0.05880380
     atom   31 type  2   force =    -0.00842547   -0.00420406   -0.07208174
     atom   32 type  2   force =     0.00019271   -0.00288610   -0.06401774
     atom   33 type  2   force =    -0.00270422    0.00165371   -0.06567726
     atom   34 type  2   force =    -0.00481330    0.00753905   -0.07337827
     atom   35 type  2   force =     0.00397297    0.00266537   -0.05347644
     atom   36 type  2   force =    -0.00183054    0.00096650   -0.06561543
     atom   37 type  2   force =     0.03209087    0.00121075    0.12394608
     atom   38 type  2   force =     0.02235663    0.00129036    0.12778542
     atom   39 type  2   force =     0.03099308    0.00068507    0.13820719
     atom   40 type  2   force =     0.03540587   -0.00274016    0.13144037
     atom   41 type  2   force =     0.02796543   -0.00295455    0.11180579
     atom   42 type  2   force =     0.03505608    0.00316742    0.12759474
     atom   43 type  2   force =     0.02456935   -0.00107989    0.12473137
     atom   44 type  2   force =     0.02654610    0.00382897    0.13558747
     atom   45 type  2   force =     0.03088842    0.00037457    0.13950276
     atom   46 type  2   force =    -0.02538864    0.00612730    0.12218152
     atom   47 type  2   force =    -0.03045061    0.00690599    0.12538167
     atom   48 type  2   force =    -0.03079567    0.00702043    0.13548055
     atom   49 type  2   force =    -0.02609783   -0.00687763    0.14178493
     atom   50 type  2   force =    -0.02788994   -0.00513073    0.12940164
     atom   51 type  2   force =    -0.03253610   -0.00308067    0.13087012
     atom   52 type  2   force =    -0.02102281    0.00238838    0.11927070
     atom   53 type  2   force =    -0.03012335   -0.00406252    0.14393010
     atom   54 type  2   force =    -0.03040559   -0.00506610    0.12170253
     atom   55 type  3   force =     0.00347997   -0.00271906    0.03102036
     atom   56 type  3   force =    -0.01596699    0.00246580    0.03243943
     atom   57 type  3   force =     0.00031306    0.00223863    0.04546473
     atom   58 type  3   force =     0.00208704    0.00625059    0.02781942
     atom   59 type  3   force =    -0.01928022    0.00283024    0.03229699
     atom   60 type  3   force =    -0.00120227   -0.00222752    0.05961579
[...]
     atom  121 type  3   force =     0.01805820   -0.00033433   -0.05923777
     atom  122 type  3   force =     0.02057489   -0.00076889    0.03107341
     atom  123 type  3   force =    -0.00940839    0.00161935   -0.03668805
     atom  124 type  3   force =     0.01896403   -0.00164593   -0.05591336
     atom  125 type  3   force =     0.02023815    0.00043653    0.03449108
     atom  126 type  3   force =    -0.00739058    0.00007823   -0.04169943
     atom  127 type  3   force =     0.01481788   -0.00859273   -0.05485871
     atom  128 type  3   force =     0.00698572   -0.00286960    0.03023303
     atom  129 type  3   force =    -0.01074394    0.00052245   -0.04126551
     atom  130 type  3   force =     0.01777513   -0.00350282   -0.05756008
     atom  131 type  3   force =     0.01819726   -0.00016680    0.03149220
     atom  132 type  3   force =    -0.00601673    0.00283813   -0.02342109
     atom  133 type  3   force =     0.01686229   -0.00118945   -0.05738959
     atom  134 type  3   force =     0.01221967    0.00045710    0.02955051
     atom  135 type  3   force =    -0.00756398   -0.00071952   -0.02217550

     Total force =     0.766461     Total SCF correction =     0.000166

     Computing stress (Cartesian axis) and pressure

          total   stress  (Ry/bohr**3)                   (kbar)     P=       48.88
   0.00021820   0.00000028   0.00000052           32.10        0.04        0.08
   0.00000028   0.00012477  -0.00000262            0.04       18.35       -0.39
   0.00000052  -0.00000262   0.00065394            0.08       -0.39       96.20

     Writing all to output data dir /n/holyscratch01/kozinsky_lab/sfalletta/QE/BaTiO3/BaTiO3-wall-Ey-0/BaTiO3.save/

     General routines

     Parallel routines

     Electric-field routines

   This run was terminated on:   0:30: 0   1Apr2024

   JOB DONE.