     Program PWSCF v.7.1 starts on  3Feb2024 at 20: 5:33

     Reading input from /n/holyscratch01/kozinsky_lab/sfalletta/QE/SiO2/SiO2-T300-Ey-0/SiO2-scf.inp

     Current dimensions of program PWSCF are:
     Max number of different atomic species (ntypx) = 10
     Max number of k-points (npk) =  40000
     Max angular momentum in pseudopotentials (lmaxx) =  4

     IMPORTANT: XC functional enforced from input :
     Exchange-correlation= PBE
                           (   1   4   3   4   0   0   0)
     Any further DFT definition will be discarded
     Please, verify this is what you really want

     R & G space division:  proc/nbgrp/npool/nimage =     112
     Subspace diagonalization in iterative solution of the eigenvalue problem:
     one sub-group per band group will be used

     Using Slab Decomposition

     bravais-lattice index     =           14
     lattice parameter (alat)  =      18.8417  a.u.
     unit-cell volume          =    6365.9664 (a.u.)^3
     number of atoms/cell      =           72
     number of atomic types    =            2
     number of electrons       =       384.00
     number of Kohn-Sham states=          220
     kinetic-energy cutoff     =     100.0000  Ry
     charge density cutoff     =     800.0000  Ry
     scf convergence threshold =      1.0E-08
     mixing beta               =       0.7000
     number of iterations used =            8  plain     mixing
     Exchange-correlation= PBE
                           (   1   4   3   4   0   0   0)

     Using Berry phase electric field
     In a.u.(Ry)  cartesian system of reference
        0.0000000000
        0.0001000000
        0.0000000000
     In a.u.(Ry)  crystal system of reference
        0.0000000000
        0.0001000000
        0.0000000000
     Number of iterative cycles:   1

     celldm(1)=  18.841714  celldm(2)=   0.866025  celldm(3)=   1.098936
     celldm(4)=   0.000000  celldm(5)=   0.000000  celldm(6)=   0.000000

     crystal axes: (cart. coord. in units of alat)
               a(1) = (   1.000000   0.000000   0.000000 )
               a(2) = (   0.000000   0.866025   0.000000 )
               a(3) = (   0.000000   0.000000   1.098936 )

     reciprocal axes: (cart. coord. in units 2 pi/alat)
               b(1) = (  1.000000  0.000000  0.000000 )
               b(2) = (  0.000000  1.154701  0.000000 )
               b(3) = (  0.000000  0.000000  0.909971 )

     PseudoPot. # 1 for Si read from file:
     /n/holyscratch01/kozinsky_lab/sfalletta/QE/Inputs/Si.upf
     MD5 check sum: 1e49d63d1c5892e9c2567cdfc797a7ef
     Pseudo is Norm-conserving + core correction, Zval =  4.0
     Generated using ONCVPSP code by D. R. Hamann
     Using radial grid of 1510 points,  6 beta functions with:
                l(1) =   0
                l(2) =   0
                l(3) =   1
                l(4) =   1
                l(5) =   2
                l(6) =   2

     PseudoPot. # 2 for O  read from file:
     /n/holyscratch01/kozinsky_lab/sfalletta/QE/Inputs/O.upf
     MD5 check sum: e161f86cb4953fdc9aae83e76c3f29b8
     Pseudo is Norm-conserving + core correction, Zval =  6.0
     Generated using ONCVPSP code by D. R. Hamann
     Using radial grid of  936 points,  5 beta functions with:
                l(1) =   0
                l(2) =   0
                l(3) =   1
                l(4) =   1
                l(5) =   2

     atomic species   valence    mass     pseudopotential
        Si             4.00    28.08550     Si( 1.00)
        O              6.00    15.99900     O ( 1.00)

     No symmetry found

   Cartesian axes

     site n.     atom                  positions (alat units)
         1           Si  tau(   1) = (   0.8813035   0.2172857   0.4659607  )
         2           Si  tau(   2) = (   0.1343238   0.2333319   0.2914988  )
         3           Si  tau(   3) = (   0.2383927   0.8564063   0.1010430  )
         4           O   tau(   4) = (   0.9214375   0.3207027   0.0064787  )
         5           O   tau(   5) = (   0.1079934   0.3627493   0.2060788  )
         6           O   tau(   6) = (   0.0227171   0.1991313   0.4044137  )
         7           O   tau(   7) = (   0.1229554   0.0989275   0.1822627  )
         8           O   tau(   8) = (   0.2818896   0.2416242   0.3523658  )
         9           O   tau(   9) = (   0.3337240   0.0563689   0.5145374  )
        10           Si  tau(  10) = (   0.8922758   0.1913595   1.0153044  )
        11           Si  tau(  11) = (   0.1336428   0.2131676   0.8251846  )
        12           Si  tau(  12) = (   0.2355664   0.0005642   0.6377606  )
        13           O   tau(  13) = (   0.8749819   0.3387718   0.5661873  )
        14           O   tau(  14) = (   0.0756980   0.3505253   0.7685320  )
        15           O   tau(  15) = (   0.0396649   0.1533708   0.9327688  )
        16           O   tau(  16) = (   0.1401811   0.1215162   0.7044517  )
        17           O   tau(  17) = (   0.2767304   0.2412150   0.8880132  )
        18           O   tau(  18) = (   0.3330279   0.0777264   0.0060730  )
        19           Si  tau(  19) = (   0.8785514   0.6495924   0.2801615  )
        20           Si  tau(  20) = (   0.0142748   0.4209203   0.0814573  )
        21           O   tau(  21) = (   0.8288985   0.7898607   0.2103483  )
        22           O   tau(  22) = (   0.9248525   0.5370326   0.1716546  )
        23           O   tau(  23) = (   0.0019080   0.6754605   0.3723134  )
        24           O   tau(  24) = (   0.0908774   0.5120030   0.5511350  )
        25           Si  tau(  25) = (   0.8834879   0.6569250   0.8315944  )
        26           Si  tau(  26) = (   0.9689181   0.4231548   0.6600762  )
        27           O   tau(  27) = (   0.8406771   0.7849172   0.7408457  )
        28           O   tau(  28) = (   0.8828611   0.5282237   0.7349012  )
        29           O   tau(  29) = (   0.0284158   0.6778976   0.9082347  )
        30           O   tau(  30) = (   0.1008464   0.5006897   1.0854004  )
        31           Si  tau(  31) = (   0.3903945   0.1959841   0.4544257  )
        32           Si  tau(  32) = (   0.6350888   0.2374650   0.2641304  )
        33           Si  tau(  33) = (   0.7426821   0.8580562   0.0964391  )
        34           O   tau(  34) = (   0.3964664   0.3277193   0.0047873  )
        35           O   tau(  35) = (   0.5993086   0.3639969   0.1831634  )
        36           O   tau(  36) = (   0.5337991   0.1747186   0.3725310  )
        37           O   tau(  37) = (   0.6430562   0.1192044   0.1607756  )
        38           O   tau(  38) = (   0.7887605   0.2740375   0.3430855  )
        39           O   tau(  39) = (   0.8278043   0.0860395   0.5278145  )
        40           Si  tau(  40) = (   0.3766000   0.2038943   1.0073310  )
        41           Si  tau(  41) = (   0.6320258   0.2494081   0.8224716  )
        42           Si  tau(  42) = (   0.7352372   0.0055785   0.6452256  )
        43           O   tau(  43) = (   0.4035823   0.3025383   0.5736873  )
        44           O   tau(  44) = (   0.5722260   0.3934746   0.7657649  )
        45           O   tau(  45) = (   0.5240344   0.1808887   0.9320637  )
        46           O   tau(  46) = (   0.6461664   0.1319529   0.7094343  )
        47           O   tau(  47) = (   0.7831219   0.2395221   0.8890653  )
        48           O   tau(  48) = (   0.8376001   0.0555046   1.0794229  )
        49           Si  tau(  49) = (   0.1293853   0.6365260   0.4717336  )
        50           Si  tau(  50) = (   0.3723164   0.6453710   0.2711039  )
        51           Si  tau(  51) = (   0.4873104   0.4334752   0.0847911  )
        52           O   tau(  52) = (   0.1490692   0.7537867   0.0162825  )
        53           O   tau(  53) = (   0.3286530   0.7825382   0.2046074  )
        54           O   tau(  54) = (   0.2587255   0.6093160   0.3838533  )
        55           O   tau(  55) = (   0.3958215   0.5194198   0.1762461  )
        56           O   tau(  56) = (   0.5090152   0.6942657   0.3312086  )
        57           O   tau(  57) = (   0.5597162   0.5079511   0.4994732  )
        58           Si  tau(  58) = (   0.1410025   0.6363916   1.0049239  )
        59           Si  tau(  59) = (   0.3787302   0.6676836   0.8184427  )
        60           Si  tau(  60) = (   0.4745499   0.4452287   0.6270602  )
        61           O   tau(  61) = (   0.1421809   0.7626708   0.5703254  )
        62           O   tau(  62) = (   0.3286902   0.8031147   0.7565298  )
        63           O   tau(  63) = (   0.2749111   0.6119889   0.9202941  )
        64           O   tau(  64) = (   0.3804002   0.5668101   0.6818974  )
        65           O   tau(  65) = (   0.5207367   0.6862050   0.8906139  )
        66           O   tau(  66) = (   0.5723724   0.5167219   1.0749096  )
        67           Si  tau(  67) = (   0.6146768   0.6408628   0.4341361  )
        68           O   tau(  68) = (   0.6369814   0.7597964   0.0283921  )
        69           O   tau(  69) = (   0.7680506   0.6118465   0.3794012  )
        70           Si  tau(  70) = (   0.6210997   0.6519002   1.0005310  )
        71           O   tau(  71) = (   0.6322835   0.7869101   0.5598266  )
        72           O   tau(  72) = (   0.7704657   0.6311612   0.9433399  )

     number of k points=     8
                       cart. coord. in units 2pi/alat
        k(    1) = (   0.0000000   0.0000000   0.0000000), wk =   0.2500000
        k(    2) = (   0.0000000   0.0000000   0.4549855), wk =   0.2500000
        k(    3) = (   0.0000000   0.5773503   0.0000000), wk =   0.2500000
        k(    4) = (   0.0000000   0.5773503   0.4549855), wk =   0.2500000
        k(    5) = (   0.5000000   0.0000000   0.0000000), wk =   0.2500000
        k(    6) = (   0.5000000   0.0000000   0.4549855), wk =   0.2500000
        k(    7) = (   0.5000000   0.5773503   0.0000000), wk =   0.2500000
        k(    8) = (   0.5000000   0.5773503   0.4549855), wk =   0.2500000

     Initial potential from superposition of free atoms

     starting charge     383.9851, renormalised to     384.0000
     Starting wfcs are  288 randomized atomic wfcs

     Self-consistent Calculation

     iteration #  1     ecut=   100.00 Ry     beta= 0.70
     Davidson diagonalization with overlap
     ethr =  1.00E-02,  avg # of iterations =  3.0

     Expectation value of exp(iGx):  (6.78970486857168043E-002,-3.46660707404515822E-002)   1.0000000000000000
     Electronic Dipole per cell (Ry a.u.)  -4.0039493707995586
     Ionic Dipole per cell (Ry a.u.)   4797.7395854892329

[...]

     Expectation value of exp(iGx):        (0.11775122963652736,1.32019714549931229E-002)   1.0989361747729789
     Electronic Dipole per cell (Ry a.u.)   1.0406901461565565
     Ionic Dipole per cell (Ry a.u.)   5445.5764487352608
Electronic Dipole on Cartesian axes
           1  -4.0039493707995586
           2  -7.9508436504834359
           3   1.0406901461565565
Ionic Dipole on Cartesian axes
           1   4797.7395854892329
           2   4434.4358181568914
           3   5445.5764487352608

     total energy              =   -1789.73730250 Ry
     estimated scf accuracy    <      19.24563645 Ry

[...]

     iteration #  6     ecut=   100.00 Ry     beta= 0.70
     Davidson diagonalization with overlap
     c_bands:  1 eigenvalues not converged
     ethr =  7.23E-06,  avg # of iterations = 12.6

[...]

     iteration # 11     ecut=   100.00 Ry     beta= 0.70
     Davidson diagonalization with overlap
     ethr =  1.78E-10,  avg # of iterations = 10.8

[...]

     total energy              =   -1797.64034172 Ry
     estimated scf accuracy    <       0.00000003 Ry

     iteration # 13     ecut=   100.00 Ry     beta= 0.70
     Davidson diagonalization with overlap
     c_bands:  1 eigenvalues not converged
     ethr =  6.69E-12,  avg # of iterations = 12.9

[...]

     Expectation value of exp(iGx):  (7.57611036784279490E-003,-1.33243457647476936E-002)  0.86602540378443849
     Electronic Dipole per cell (Ry a.u.)  -7.7405329690774511
     Ionic Dipole per cell (Ry a.u.)   4434.4358181568914

     Expectation value of exp(iGx):   (7.38193626956834270E-002,5.23995769299280892E-003)   1.0989361747729789
     Electronic Dipole per cell (Ry a.u.)  0.66052257481214083
     Ionic Dipole per cell (Ry a.u.)   5445.5764487352608
Electronic Dipole on Cartesian axes
           1  -4.1823896028804057
           2  -7.7405329690774511
           3  0.66052257481214083
Ionic Dipole on Cartesian axes
           1   4797.7395854892329
           2   4434.4358181568914
           3   5445.5764487352608

     End of self-consistent calculation

          k = 0.0000 0.0000 0.0000 (107453 PWs)   bands (ev):

   -17.5472 -17.3535 -17.1435 -16.9709 -16.9335 -16.9051 -16.8203 -16.6365
   -16.5550 -16.4649 -16.4587 -16.4062 -16.2974 -16.1851 -16.0461 -15.9938
   -15.9740 -15.8856 -15.8622 -15.8141 -15.7351 -15.6989 -15.6296 -15.5244
   -15.4322 -15.3780 -15.3641 -15.3168 -15.2641 -15.2384 -15.2077 -15.1440
   -15.0727 -15.0355 -14.9671 -14.9171 -14.8944 -14.8115 -14.7348 -14.6412
   -14.3945 -14.3750 -14.3354 -14.3065 -14.0569 -14.0353 -13.7851 -13.6672
    -7.4478  -6.8124  -6.5827  -6.4376  -6.3784  -6.2874  -6.0445  -5.9772
    -5.8431  -5.3845  -5.3205  -5.2202  -5.1562  -5.0944  -4.8257  -4.6494
    -4.4314  -4.3848  -4.2407  -4.1270  -4.0500  -3.9853  -3.8534  -3.7486
    -3.6968  -3.6243  -3.5937  -3.4720  -3.3797  -3.2626  -3.2311  -3.1846
    -3.1341  -3.1049  -3.0555  -3.0310  -2.9203  -2.8741  -2.8179  -2.6439
    -2.5715  -2.5549  -2.5027  -2.3336  -2.2629  -2.0555  -1.9572  -1.8166
    -1.4004  -1.3471  -1.3141  -1.2356  -1.1137  -1.0845  -1.0425  -0.9999
    -0.9365  -0.9248  -0.8519  -0.8370  -0.8186  -0.7885  -0.6770  -0.6216
    -0.5808  -0.5715  -0.5366  -0.4709  -0.4449  -0.4283  -0.3519  -0.3261
    -0.3089  -0.2061  -0.1866  -0.1543  -0.1486  -0.0845  -0.0536  -0.0108
     0.0197   0.0444   0.0512   0.1155   0.1629   0.1948   0.2172   0.2719
     0.2998   0.3267   0.3610   0.3835   0.4351   0.4692   0.4928   0.5294
     0.5597   0.6419   0.6777   0.6968   0.7377   0.7949   0.8118   0.8793
     0.8947   0.9131   0.9330   0.9674   0.9938   1.0274   1.0607   1.1024
     1.1549   1.1689   1.2063   1.2556   1.2747   1.3281   1.3760   1.4358
     1.4526   1.4875   1.5353   1.5843   1.6264   1.6552   1.7028   1.7396
     1.7858   1.8242   1.9157   1.9398   2.0424   2.0986   2.1415   2.1972
     2.2215   2.3425   2.4148   2.5355   2.5452   2.5793   2.6773   2.7180
     7.6804   9.2062   9.4114   9.5453   9.7220   9.7962  10.1293  10.2679
    10.3084  10.5389  10.6512  10.7007  10.7733  10.9153  10.9199  10.9756
    11.0917  11.1584  11.2146  11.2657  11.2983  11.3330  11.3603  11.4355
    11.5188  11.5723  11.6103  11.6466

[...]

          k = 0.5000 0.5774 0.4550 (107528 PWs)   bands (ev):

   -17.4584 -17.3851 -17.2276 -17.0319 -16.9464 -16.8621 -16.7760 -16.6598
   -16.5505 -16.4801 -16.4637 -16.4021 -16.2503 -16.2026 -16.1243 -16.0064
   -15.9343 -15.8966 -15.8232 -15.7642 -15.7090 -15.6888 -15.5676 -15.5244
   -15.4716 -15.3907 -15.3545 -15.3226 -15.2674 -15.2426 -15.2179 -15.1363
   -15.0613 -15.0176 -14.9832 -14.9280 -14.8822 -14.8523 -14.7330 -14.6400
   -14.4213 -14.3691 -14.3418 -14.3063 -14.0584 -14.0344 -13.7935 -13.6672
    -7.0064  -6.8775  -6.8009  -6.5094  -6.4656  -6.3499  -6.2375  -5.9431
    -5.6052  -5.4741  -5.3591  -5.2202  -5.1578  -4.9800  -4.9148  -4.8237
    -4.3922  -4.2497  -4.1905  -4.1010  -4.0538  -3.9584  -3.9173  -3.8375
    -3.7138  -3.5770  -3.5040  -3.3983  -3.3602  -3.2565  -3.2370  -3.1775
    -3.1553  -3.0931  -3.0385  -2.9446  -2.9278  -2.8331  -2.7672  -2.7174
    -2.6046  -2.5255  -2.4467  -2.3346  -2.3001  -2.1381  -2.0458  -1.8543
    -1.4586  -1.3411  -1.3063  -1.2085  -1.1641  -1.0641  -1.0292  -1.0105
    -0.9637  -0.9018  -0.8187  -0.7938  -0.7588  -0.7276  -0.6934  -0.6588
    -0.5896  -0.5556  -0.5227  -0.5061  -0.4693  -0.4307  -0.4133  -0.3456
    -0.2926  -0.2727  -0.2443  -0.1975  -0.1609  -0.1007  -0.0504  -0.0161
     0.0487   0.0827   0.1016   0.1288   0.1410   0.1881   0.2403   0.2541
     0.3098   0.3462   0.4046   0.4390   0.4665   0.5059   0.5205   0.5611
     0.5767   0.5951   0.6536   0.6776   0.7595   0.7824   0.8080   0.8541
     0.8630   0.8993   0.9230   0.9779   1.0034   1.0363   1.0881   1.1139
     1.1594   1.1727   1.2034   1.2671   1.3076   1.3242   1.3730   1.4116
     1.4296   1.5071   1.5503   1.5736   1.5838   1.6487   1.6935   1.7258
     1.8043   1.8323   1.9293   1.9726   2.0207   2.0390   2.1550   2.1988
     2.2307   2.3004   2.4361   2.4919   2.5664   2.5890   2.6561   2.7342
     8.7361   8.9363   9.2961   9.3615   9.4771   9.6350   9.6482   9.8162
    10.3803  10.4823  10.6549  10.7894  10.8282  10.9091  10.9749  11.0044
    11.0441  11.0993  11.2245  11.2809  11.2961  11.3340  11.3922  11.4313
    11.5117  11.5732  11.6351  11.6831

     highest occupied, lowest unoccupied level (ev):     2.7342    7.6804

!    total energy              =   -1797.64034172 Ry
     estimated scf accuracy    <          1.7E-09 Ry

     The total energy is the sum of the following terms:
     one-electron contribution =    -879.51666873 Ry
     hartree contribution      =     644.20890870 Ry
     xc contribution           =    -485.47596799 Ry
     ewald contribution        =   -1076.41394416 Ry

     convergence has been achieved in  13 iterations

     Forces acting on atoms (cartesian axes, Ry/au):

     atom    1 type  1   force =    -0.09371515    0.02249440   -0.10163058
     atom    2 type  1   force =    -0.02131370   -0.14716453   -0.05100563
     atom    3 type  1   force =    -0.13287087    0.14009794    0.02939321
     atom    4 type  2   force =    -0.05511424   -0.05630751   -0.01006120
     atom    5 type  2   force =    -0.02926782    0.04609781   -0.06462505
     atom    6 type  2   force =     0.12697208   -0.00365339   -0.02904304
     atom    7 type  2   force =     0.08167690   -0.01864921   -0.00867866
     atom    8 type  2   force =    -0.04337377    0.05226178   -0.06032754
     atom    9 type  2   force =    -0.00907728   -0.01851552    0.05447161
     atom   10 type  1   force =     0.01649242   -0.00041466   -0.16457788
     atom   11 type  1   force =     0.00526454    0.10504910    0.03824468
     atom   12 type  1   force =     0.05339845    0.10687755    0.00466777
     atom   13 type  2   force =    -0.00483740    0.04259600    0.07113500
     atom   14 type  2   force =    -0.07724305    0.09246869   -0.06117150
     atom   15 type  2   force =    -0.15678645   -0.03264964    0.14682740
     atom   16 type  2   force =     0.06180289   -0.17273148   -0.17596703
     atom   17 type  2   force =     0.02763622    0.01070183    0.01695507
     atom   18 type  2   force =     0.02991827    0.03598148   -0.06607806
     atom   19 type  1   force =     0.09848673    0.01104244   -0.12763488
     atom   20 type  1   force =    -0.07036550    0.06369159    0.26026669
     atom   21 type  2   force =     0.02185212   -0.01400182    0.00801280
     atom   22 type  2   force =    -0.01418444   -0.03643503   -0.05269053
     atom   23 type  2   force =     0.11169070    0.03244271    0.05295875
     atom   24 type  2   force =    -0.11056226   -0.18845068    0.14991814
     atom   25 type  1   force =     0.00274866    0.03653942    0.01379917
     atom   26 type  1   force =     0.22547293    0.01561016   -0.04952512
     atom   27 type  2   force =    -0.02141044    0.03478904   -0.00780714
     atom   28 type  2   force =    -0.04161842    0.04773482    0.03402625
     atom   29 type  2   force =    -0.13182802    0.02604448   -0.11814035
     atom   30 type  2   force =     0.11493815    0.07198694   -0.12729515
     atom   31 type  1   force =     0.08795936   -0.05984469    0.01086597
     atom   32 type  1   force =     0.14731251   -0.05413158    0.13215033
     atom   33 type  1   force =    -0.07930545    0.10626609    0.03341372
     atom   34 type  2   force =    -0.01320669    0.04528952    0.04662931
     atom   35 type  2   force =    -0.05280505    0.11099486   -0.05308448
     atom   36 type  2   force =    -0.06925159    0.02408301    0.06511938
     atom   37 type  2   force =     0.09032182   -0.13378958   -0.09887981
     atom   38 type  2   force =    -0.10907431   -0.02929783   -0.06321880
     atom   39 type  2   force =    -0.03350686   -0.11362996    0.08781334
     atom   40 type  1   force =     0.07805266   -0.05582972   -0.01722421
     atom   41 type  1   force =    -0.02072237   -0.07214245    0.03746631
     atom   42 type  1   force =     0.04076627    0.08350373   -0.03998347
     atom   43 type  2   force =     0.02810099    0.10091976    0.05424929
     atom   44 type  2   force =    -0.01636295    0.00495699   -0.06519724
     atom   45 type  2   force =    -0.00704919    0.01803773    0.00528749
     atom   46 type  2   force =     0.01499532   -0.03701161   -0.02115426
     atom   47 type  2   force =     0.03828246    0.02222885    0.06768109
     atom   48 type  2   force =     0.01551010    0.00956539    0.00650417
     atom   49 type  1   force =    -0.08395105    0.07737935   -0.08751992
     atom   50 type  1   force =    -0.09073011   -0.00455425    0.04135127
     atom   51 type  1   force =     0.08439368   -0.06471390   -0.05036785
     atom   52 type  2   force =     0.00420181   -0.00923261   -0.00398406
     atom   53 type  2   force =     0.01145894   -0.00452178    0.00437651
     atom   54 type  2   force =     0.07837599   -0.01354342   -0.04178501
     atom   55 type  2   force =    -0.07200814    0.04791695    0.03288920
     atom   56 type  2   force =     0.06474024    0.02548291    0.01066763
     atom   57 type  2   force =    -0.02170806   -0.06480826    0.06383362
     atom   58 type  1   force =     0.02990353   -0.02668840    0.08233661
     atom   59 type  1   force =     0.03551802   -0.04497900   -0.10367528
     atom   60 type  1   force =     0.03375149   -0.07300152    0.04750976
     atom   61 type  2   force =    -0.04089347   -0.02994912   -0.00359577
     atom   62 type  2   force =    -0.02370995    0.08000257   -0.01901378
     atom   63 type  2   force =    -0.02807359   -0.04564219    0.06852497
     atom   64 type  2   force =     0.02387384   -0.01381788    0.03989181
     atom   65 type  2   force =    -0.06957233    0.05077280   -0.10273413
     atom   66 type  2   force =    -0.00190773   -0.00739601   -0.00548604
     atom   67 type  1   force =     0.13745033    0.12742219    0.10587966
     atom   68 type  2   force =    -0.03705507   -0.04024089   -0.05709492
     atom   69 type  2   force =    -0.20208233   -0.04781050    0.10734582
     atom   70 type  1   force =     0.10962011   -0.02205860    0.16527019
     atom   71 type  2   force =    -0.05004410   -0.16361269   -0.09235088
     atom   72 type  2   force =     0.00364863   -0.00810900    0.00487527

     Total force =     1.102630     Total SCF correction =     0.000050

     Computing stress (Cartesian axis) and pressure

          total   stress  (Ry/bohr**3)                   (kbar)     P=       54.63
   0.00030758   0.00013345   0.00006229           45.25       19.63        9.16
   0.00013345   0.00041428  -0.00007742           19.63       60.94      -11.39
   0.00006229  -0.00007742   0.00039228            9.16      -11.39       57.71

     Writing all to output data dir /n/holyscratch01/kozinsky_lab/sfalletta/QE/SiO2/SiO2-T300-Ey-0/SiO2.save/

     General routines

     Parallel routines

     Electric-field routines

   This run was terminated on:   0:54:30   4Feb2024

   JOB DONE.