     Program PWSCF v.7.1 starts on  3Feb2024 at  2:12:42

     Reading input from /n/holyscratch01/kozinsky_lab/sfalletta/QE/SiO2/SiO2-T300-Ex-0/SiO2-scf.inp

     Current dimensions of program PWSCF are:
     Max number of different atomic species (ntypx) = 10
     Max number of k-points (npk) =  40000
     Max angular momentum in pseudopotentials (lmaxx) =  4

     IMPORTANT: XC functional enforced from input :
     Exchange-correlation= PBE
                           (   1   4   3   4   0   0   0)
     Any further DFT definition will be discarded
     Please, verify this is what you really want

     R & G space division:  proc/nbgrp/npool/nimage =     112
     Subspace diagonalization in iterative solution of the eigenvalue problem:
     one sub-group per band group will be used

     Using Slab Decomposition

     bravais-lattice index     =           14
     lattice parameter (alat)  =      18.8417  a.u.
     unit-cell volume          =    6365.9664 (a.u.)^3
     number of atoms/cell      =           72
     number of atomic types    =            2
     number of electrons       =       384.00
     number of Kohn-Sham states=          220
     kinetic-energy cutoff     =     100.0000  Ry
     charge density cutoff     =     800.0000  Ry
     scf convergence threshold =      1.0E-08
     mixing beta               =       0.7000
     number of iterations used =            8  plain     mixing
     Exchange-correlation= PBE
                           (   1   4   3   4   0   0   0)

     Using Berry phase electric field
     In a.u.(Ry)  cartesian system of reference
        0.0001000000
        0.0000000000
        0.0000000000
     In a.u.(Ry)  crystal system of reference
        0.0001000000
        0.0000000000
        0.0000000000
     Number of iterative cycles:   1

     celldm(1)=  18.841714  celldm(2)=   0.866025  celldm(3)=   1.098936
     celldm(4)=   0.000000  celldm(5)=   0.000000  celldm(6)=   0.000000

     crystal axes: (cart. coord. in units of alat)
               a(1) = (   1.000000   0.000000   0.000000 )
               a(2) = (   0.000000   0.866025   0.000000 )
               a(3) = (   0.000000   0.000000   1.098936 )

     reciprocal axes: (cart. coord. in units 2 pi/alat)
               b(1) = (  1.000000  0.000000  0.000000 )
               b(2) = (  0.000000  1.154701  0.000000 )
               b(3) = (  0.000000  0.000000  0.909971 )

     PseudoPot. # 1 for Si read from file:
     /n/holyscratch01/kozinsky_lab/sfalletta/QE/Inputs/Si.upf
     MD5 check sum: 1e49d63d1c5892e9c2567cdfc797a7ef
     Pseudo is Norm-conserving + core correction, Zval =  4.0
     Generated using ONCVPSP code by D. R. Hamann
     Using radial grid of 1510 points,  6 beta functions with:
                l(1) =   0
                l(2) =   0
                l(3) =   1
                l(4) =   1
                l(5) =   2
                l(6) =   2

     PseudoPot. # 2 for O  read from file:
     /n/holyscratch01/kozinsky_lab/sfalletta/QE/Inputs/O.upf
     MD5 check sum: e161f86cb4953fdc9aae83e76c3f29b8
     Pseudo is Norm-conserving + core correction, Zval =  6.0
     Generated using ONCVPSP code by D. R. Hamann
     Using radial grid of  936 points,  5 beta functions with:
                l(1) =   0
                l(2) =   0
                l(3) =   1
                l(4) =   1
                l(5) =   2

     atomic species   valence    mass     pseudopotential
        Si             4.00    28.08550     Si( 1.00)
        O              6.00    15.99900     O ( 1.00)

     No symmetry found

   Cartesian axes

     site n.     atom                  positions (alat units)
         1           Si  tau(   1) = (   0.8813035   0.2172857   0.4659607  )
         2           Si  tau(   2) = (   0.1343238   0.2333319   0.2914988  )
         3           Si  tau(   3) = (   0.2383927   0.8564063   0.1010430  )
         4           O   tau(   4) = (   0.9214375   0.3207027   0.0064787  )
         5           O   tau(   5) = (   0.1079934   0.3627493   0.2060788  )
         6           O   tau(   6) = (   0.0227171   0.1991313   0.4044137  )
         7           O   tau(   7) = (   0.1229554   0.0989275   0.1822627  )
         8           O   tau(   8) = (   0.2818896   0.2416242   0.3523658  )
         9           O   tau(   9) = (   0.3337240   0.0563689   0.5145374  )
        10           Si  tau(  10) = (   0.8922758   0.1913595   1.0153044  )
        11           Si  tau(  11) = (   0.1336428   0.2131676   0.8251846  )
        12           Si  tau(  12) = (   0.2355664   0.0005642   0.6377606  )
        13           O   tau(  13) = (   0.8749819   0.3387718   0.5661873  )
        14           O   tau(  14) = (   0.0756980   0.3505253   0.7685320  )
        15           O   tau(  15) = (   0.0396649   0.1533708   0.9327688  )
        16           O   tau(  16) = (   0.1401811   0.1215162   0.7044517  )
        17           O   tau(  17) = (   0.2767304   0.2412150   0.8880132  )
        18           O   tau(  18) = (   0.3330279   0.0777264   0.0060730  )
        19           Si  tau(  19) = (   0.8785514   0.6495924   0.2801615  )
        20           Si  tau(  20) = (   0.0142748   0.4209203   0.0814573  )
        21           O   tau(  21) = (   0.8288985   0.7898607   0.2103483  )
        22           O   tau(  22) = (   0.9248525   0.5370326   0.1716546  )
        23           O   tau(  23) = (   0.0019080   0.6754605   0.3723134  )
        24           O   tau(  24) = (   0.0908774   0.5120030   0.5511350  )
        25           Si  tau(  25) = (   0.8834879   0.6569250   0.8315944  )
        26           Si  tau(  26) = (   0.9689181   0.4231548   0.6600762  )
        27           O   tau(  27) = (   0.8406771   0.7849172   0.7408457  )
        28           O   tau(  28) = (   0.8828611   0.5282237   0.7349012  )
        29           O   tau(  29) = (   0.0284158   0.6778976   0.9082347  )
        30           O   tau(  30) = (   0.1008464   0.5006897   1.0854004  )
        31           Si  tau(  31) = (   0.3903945   0.1959841   0.4544257  )
        32           Si  tau(  32) = (   0.6350888   0.2374650   0.2641304  )
        33           Si  tau(  33) = (   0.7426821   0.8580562   0.0964391  )
        34           O   tau(  34) = (   0.3964664   0.3277193   0.0047873  )
        35           O   tau(  35) = (   0.5993086   0.3639969   0.1831634  )
        36           O   tau(  36) = (   0.5337991   0.1747186   0.3725310  )
        37           O   tau(  37) = (   0.6430562   0.1192044   0.1607756  )
        38           O   tau(  38) = (   0.7887605   0.2740375   0.3430855  )
        39           O   tau(  39) = (   0.8278043   0.0860395   0.5278145  )
        40           Si  tau(  40) = (   0.3766000   0.2038943   1.0073310  )
        41           Si  tau(  41) = (   0.6320258   0.2494081   0.8224716  )
        42           Si  tau(  42) = (   0.7352372   0.0055785   0.6452256  )
        43           O   tau(  43) = (   0.4035823   0.3025383   0.5736873  )
        44           O   tau(  44) = (   0.5722260   0.3934746   0.7657649  )
        45           O   tau(  45) = (   0.5240344   0.1808887   0.9320637  )
        46           O   tau(  46) = (   0.6461664   0.1319529   0.7094343  )
        47           O   tau(  47) = (   0.7831219   0.2395221   0.8890653  )
        48           O   tau(  48) = (   0.8376001   0.0555046   1.0794229  )
        49           Si  tau(  49) = (   0.1293853   0.6365260   0.4717336  )
        50           Si  tau(  50) = (   0.3723164   0.6453710   0.2711039  )
        51           Si  tau(  51) = (   0.4873104   0.4334752   0.0847911  )
        52           O   tau(  52) = (   0.1490692   0.7537867   0.0162825  )
        53           O   tau(  53) = (   0.3286530   0.7825382   0.2046074  )
        54           O   tau(  54) = (   0.2587255   0.6093160   0.3838533  )
        55           O   tau(  55) = (   0.3958215   0.5194198   0.1762461  )
        56           O   tau(  56) = (   0.5090152   0.6942657   0.3312086  )
        57           O   tau(  57) = (   0.5597162   0.5079511   0.4994732  )
        58           Si  tau(  58) = (   0.1410025   0.6363916   1.0049239  )
        59           Si  tau(  59) = (   0.3787302   0.6676836   0.8184427  )
        60           Si  tau(  60) = (   0.4745499   0.4452287   0.6270602  )
        61           O   tau(  61) = (   0.1421809   0.7626708   0.5703254  )
        62           O   tau(  62) = (   0.3286902   0.8031147   0.7565298  )
        63           O   tau(  63) = (   0.2749111   0.6119889   0.9202941  )
        64           O   tau(  64) = (   0.3804002   0.5668101   0.6818974  )
        65           O   tau(  65) = (   0.5207367   0.6862050   0.8906139  )
        66           O   tau(  66) = (   0.5723724   0.5167219   1.0749096  )
        67           Si  tau(  67) = (   0.6146768   0.6408628   0.4341361  )
        68           O   tau(  68) = (   0.6369814   0.7597964   0.0283921  )
        69           O   tau(  69) = (   0.7680506   0.6118465   0.3794012  )
        70           Si  tau(  70) = (   0.6210997   0.6519002   1.0005310  )
        71           O   tau(  71) = (   0.6322835   0.7869101   0.5598266  )
        72           O   tau(  72) = (   0.7704657   0.6311612   0.9433399  )

     number of k points=     8
                       cart. coord. in units 2pi/alat
        k(    1) = (   0.0000000   0.0000000   0.0000000), wk =   0.2500000
        k(    2) = (   0.0000000   0.0000000   0.4549855), wk =   0.2500000
        k(    3) = (   0.0000000   0.5773503   0.0000000), wk =   0.2500000
        k(    4) = (   0.0000000   0.5773503   0.4549855), wk =   0.2500000
        k(    5) = (   0.5000000   0.0000000   0.0000000), wk =   0.2500000
        k(    6) = (   0.5000000   0.0000000   0.4549855), wk =   0.2500000
        k(    7) = (   0.5000000   0.5773503   0.0000000), wk =   0.2500000
        k(    8) = (   0.5000000   0.5773503   0.4549855), wk =   0.2500000

     Initial potential from superposition of free atoms

     starting charge     383.9851, renormalised to     384.0000
     Starting wfcs are  288 randomized atomic wfcs

     Self-consistent Calculation

     iteration #  1     ecut=   100.00 Ry     beta= 0.70
     Davidson diagonalization with overlap
     ethr =  1.00E-02,  avg # of iterations =  3.0

     Expectation value of exp(iGx):  (6.80875163280334345E-002,-3.42893925772537259E-002)   1.0000000000000000
     Electronic Dipole per cell (Ry a.u.)  -3.9569876178691721
     Ionic Dipole per cell (Ry a.u.)   4797.7395854892329

[...]

     Expectation value of exp(iGx):        (0.11775145978982172,1.32014601654565772E-002)   1.0989361747729789
     Electronic Dipole per cell (Ry a.u.)   1.0406481589651375
     Ionic Dipole per cell (Ry a.u.)   5445.5764487352608
Electronic Dipole on Cartesian axes
           1  -3.9569876178691721
           2  -7.9973156867945194
           3   1.0406481589651375
Ionic Dipole on Cartesian axes
           1   4797.7395854892329
           2   4434.4358181568914
           3   5445.5764487352608

     total energy              =   -1789.77391485 Ry
     estimated scf accuracy    <      19.24572824 Ry

[...]

     iteration #  6     ecut=   100.00 Ry     beta= 0.70
     Davidson diagonalization with overlap
     c_bands:  1 eigenvalues not converged
     ethr =  7.23E-06,  avg # of iterations = 12.6

[...]

     iteration # 10     ecut=   100.00 Ry     beta= 0.70
     Davidson diagonalization with overlap
     ethr =  1.30E-09,  avg # of iterations = 14.0

[...]

     total energy              =   -1797.67703492 Ry
     estimated scf accuracy    <       0.00000003 Ry

     iteration # 13     ecut=   100.00 Ry     beta= 0.70
     Davidson diagonalization with overlap
     c_bands:  1 eigenvalues not converged
     ethr =  6.72E-12,  avg # of iterations = 13.0

[...]

     Expectation value of exp(iGx):  (7.44985094750212282E-003,-1.33965190189112675E-002)  0.86602540378443849
     Electronic Dipole per cell (Ry a.u.)  -7.8102241151741403
     Ionic Dipole per cell (Ry a.u.)   4434.4358181568914

     Expectation value of exp(iGx):   (7.38193026084244114E-002,5.23952155157160135E-003)   1.0989361747729789
     Electronic Dipole per cell (Ry a.u.)  0.66046831668846739
     Ionic Dipole per cell (Ry a.u.)   5445.5764487352608
Electronic Dipole on Cartesian axes
           1  -4.1119489989841140
           2  -7.8102241151741403
           3  0.66046831668846739
Ionic Dipole on Cartesian axes
           1   4797.7395854892329
           2   4434.4358181568914
           3   5445.5764487352608

     End of self-consistent calculation

          k = 0.0000 0.0000 0.0000 (107453 PWs)   bands (ev):

   -17.5472 -17.3535 -17.1435 -16.9707 -16.9335 -16.9051 -16.8203 -16.6365
   -16.5549 -16.4649 -16.4586 -16.4062 -16.2978 -16.1850 -16.0462 -15.9938
   -15.9740 -15.8858 -15.8622 -15.8141 -15.7351 -15.6991 -15.6295 -15.5245
   -15.4321 -15.3781 -15.3641 -15.3168 -15.2640 -15.2382 -15.2077 -15.1443
   -15.0729 -15.0356 -14.9672 -14.9174 -14.8945 -14.8118 -14.7347 -14.6411
   -14.3944 -14.3748 -14.3358 -14.3067 -14.0560 -14.0352 -13.7849 -13.6667
    -7.4479  -6.8125  -6.5828  -6.4375  -6.3786  -6.2873  -6.0446  -5.9772
    -5.8431  -5.3845  -5.3204  -5.2203  -5.1561  -5.0945  -4.8256  -4.6494
    -4.4315  -4.3848  -4.2408  -4.1270  -4.0499  -3.9854  -3.8535  -3.7487
    -3.6968  -3.6243  -3.5938  -3.4719  -3.3797  -3.2626  -3.2312  -3.1846
    -3.1342  -3.1049  -3.0556  -3.0309  -2.9205  -2.8741  -2.8179  -2.6440
    -2.5715  -2.5549  -2.5027  -2.3336  -2.2628  -2.0553  -1.9570  -1.8164
    -1.4005  -1.3471  -1.3141  -1.2356  -1.1136  -1.0846  -1.0424  -0.9999
    -0.9365  -0.9247  -0.8518  -0.8371  -0.8185  -0.7885  -0.6771  -0.6216
    -0.5808  -0.5716  -0.5368  -0.4707  -0.4448  -0.4282  -0.3519  -0.3261
    -0.3088  -0.2061  -0.1866  -0.1544  -0.1487  -0.0845  -0.0536  -0.0108
     0.0197   0.0444   0.0511   0.1155   0.1629   0.1949   0.2172   0.2720
     0.2998   0.3267   0.3611   0.3833   0.4350   0.4693   0.4928   0.5293
     0.5597   0.6420   0.6776   0.6967   0.7377   0.7948   0.8118   0.8792
     0.8947   0.9130   0.9331   0.9676   0.9938   1.0275   1.0606   1.1023
     1.1549   1.1689   1.2064   1.2557   1.2748   1.3280   1.3761   1.4358
     1.4525   1.4874   1.5350   1.5843   1.6264   1.6551   1.7027   1.7395
     1.7859   1.8241   1.9158   1.9398   2.0424   2.0985   2.1416   2.1977
     2.2216   2.3426   2.4149   2.5356   2.5452   2.5794   2.6774   2.7182
     7.6805   9.2063   9.4115   9.5454   9.7220   9.7962  10.1294  10.2680
    10.3084  10.5388  10.6512  10.7007  10.7733  10.9153  10.9200  10.9756
    11.0916  11.1584  11.2146  11.2657  11.2983  11.3330  11.3603  11.4355
    11.5189  11.5723  11.6103  11.6466

[...]

          k = 0.5000 0.5774 0.4550 (107528 PWs)   bands (ev):

   -17.4585 -17.3850 -17.2277 -17.0318 -16.9463 -16.8622 -16.7760 -16.6597
   -16.5504 -16.4801 -16.4637 -16.4022 -16.2506 -16.2025 -16.1244 -16.0064
   -15.9343 -15.8967 -15.8234 -15.7640 -15.7090 -15.6890 -15.5674 -15.5244
   -15.4715 -15.3908 -15.3546 -15.3225 -15.2674 -15.2426 -15.2179 -15.1366
   -15.0616 -15.0178 -14.9832 -14.9283 -14.8823 -14.8526 -14.7329 -14.6400
   -14.4213 -14.3690 -14.3421 -14.3065 -14.0575 -14.0343 -13.7934 -13.6667
    -7.0066  -6.8776  -6.8009  -6.5094  -6.4655  -6.3499  -6.2376  -5.9430
    -5.6051  -5.4741  -5.3590  -5.2203  -5.1579  -4.9800  -4.9148  -4.8237
    -4.3923  -4.2498  -4.1905  -4.1012  -4.0538  -3.9584  -3.9174  -3.8374
    -3.7139  -3.5771  -3.5039  -3.3984  -3.3603  -3.2563  -3.2369  -3.1775
    -3.1554  -3.0933  -3.0384  -2.9445  -2.9279  -2.8332  -2.7673  -2.7176
    -2.6047  -2.5255  -2.4466  -2.3345  -2.3002  -2.1378  -2.0457  -1.8542
    -1.4587  -1.3412  -1.3063  -1.2084  -1.1640  -1.0641  -1.0291  -1.0105
    -0.9636  -0.9018  -0.8189  -0.7938  -0.7587  -0.7277  -0.6933  -0.6587
    -0.5895  -0.5557  -0.5228  -0.5059  -0.4694  -0.4308  -0.4132  -0.3457
    -0.2926  -0.2729  -0.2444  -0.1976  -0.1609  -0.1008  -0.0503  -0.0161
     0.0486   0.0828   0.1016   0.1288   0.1410   0.1882   0.2403   0.2541
     0.3098   0.3462   0.4046   0.4390   0.4666   0.5060   0.5205   0.5611
     0.5768   0.5951   0.6536   0.6776   0.7595   0.7823   0.8081   0.8539
     0.8629   0.8994   0.9231   0.9779   1.0035   1.0364   1.0880   1.1139
     1.1593   1.1726   1.2034   1.2670   1.3077   1.3242   1.3729   1.4116
     1.4295   1.5072   1.5503   1.5736   1.5836   1.6487   1.6934   1.7257
     1.8042   1.8323   1.9295   1.9725   2.0206   2.0390   2.1549   2.1990
     2.2311   2.3006   2.4362   2.4919   2.5664   2.5891   2.6563   2.7343
     8.7363   8.9364   9.2961   9.3614   9.4770   9.6350   9.6482   9.8162
    10.3804  10.4823  10.6549  10.7895  10.8281  10.9091  10.9749  11.0044
    11.0440  11.0992  11.2245  11.2810  11.2961  11.3340  11.3921  11.4313
    11.5116  11.5731  11.6352  11.6831

     highest occupied, lowest unoccupied level (ev):     2.7343    7.6805

!    total energy              =   -1797.67703491 Ry
     estimated scf accuracy    <          1.7E-09 Ry

     The total energy is the sum of the following terms:
     one-electron contribution =    -879.51671389 Ry
     hartree contribution      =     644.20896956 Ry
     xc contribution           =    -485.47598365 Ry
     ewald contribution        =   -1076.41394416 Ry

     convergence has been achieved in  13 iterations

     Forces acting on atoms (cartesian axes, Ry/au):

     atom    1 type  1   force =    -0.09325930    0.02208727   -0.10159405
     atom    2 type  1   force =    -0.02081674   -0.14766757   -0.05104583
     atom    3 type  1   force =    -0.13243985    0.13957773    0.02941005
     atom    4 type  2   force =    -0.05522100   -0.05608974   -0.01001615
     atom    5 type  2   force =    -0.02951589    0.04642681   -0.06479210
     atom    6 type  2   force =     0.12662715   -0.00351012   -0.02892990
     atom    7 type  2   force =     0.08144609   -0.01830615   -0.00854557
     atom    8 type  2   force =    -0.04372221    0.05244036   -0.06045622
     atom    9 type  2   force =    -0.00919929   -0.01832132    0.05444990
     atom   10 type  1   force =     0.01696484   -0.00082147   -0.16452852
     atom   11 type  1   force =     0.00579792    0.10457699    0.03816727
     atom   12 type  1   force =     0.05381989    0.10636257    0.00469500
     atom   13 type  2   force =    -0.00496811    0.04280005    0.07118512
     atom   14 type  2   force =    -0.07754175    0.09282958   -0.06130946
     atom   15 type  2   force =    -0.15709599   -0.03251038    0.14693324
     atom   16 type  2   force =     0.06156074   -0.17239433   -0.17580256
     atom   17 type  2   force =     0.02731126    0.01084827    0.01684161
     atom   18 type  2   force =     0.02979283    0.03617321   -0.06611099
     atom   19 type  1   force =     0.09907066    0.01054642   -0.12767890
     atom   20 type  1   force =    -0.06994795    0.06314993    0.26026943
     atom   21 type  2   force =     0.02157434   -0.01364733    0.00784912
     atom   22 type  2   force =    -0.01447162   -0.03605919   -0.05250848
     atom   23 type  2   force =     0.11135324    0.03259723    0.05283114
     atom   24 type  2   force =    -0.11069654   -0.18825892    0.14988526
     atom   25 type  1   force =     0.00328501    0.03600007    0.01378170
     atom   26 type  1   force =     0.22590758    0.01511201   -0.04952020
     atom   27 type  2   force =    -0.02170322    0.03515715   -0.00798071
     atom   28 type  2   force =    -0.04185181    0.04810702    0.03418109
     atom   29 type  2   force =    -0.13216660    0.02621582   -0.11826489
     atom   30 type  2   force =     0.11481890    0.07220643   -0.12733451
     atom   31 type  1   force =     0.08842092   -0.06025539    0.01086553
     atom   32 type  1   force =     0.14779570   -0.05460446    0.13211878
     atom   33 type  1   force =    -0.07888689    0.10575258    0.03346038
     atom   34 type  2   force =    -0.01333132    0.04551098    0.04668692
     atom   35 type  2   force =    -0.05308573    0.11134747   -0.05325142
     atom   36 type  2   force =    -0.06955414    0.02419810    0.06523362
     atom   37 type  2   force =     0.09008552   -0.13342023   -0.09873473
     atom   38 type  2   force =    -0.10936706   -0.02912933   -0.06334273
     atom   39 type  2   force =    -0.03362729   -0.11343467    0.08778787
     atom   40 type  1   force =     0.07850030   -0.05621971   -0.01720729
     atom   41 type  1   force =    -0.02016719   -0.07264922    0.03739515
     atom   42 type  1   force =     0.04117827    0.08296150   -0.03996835
     atom   43 type  2   force =     0.02798001    0.10115030    0.05430850
     atom   44 type  2   force =    -0.01664955    0.00529692   -0.06535056
     atom   45 type  2   force =    -0.00735989    0.01816128    0.00539424
     atom   46 type  2   force =     0.01474714   -0.03663296   -0.02100617
     atom   47 type  2   force =     0.03793671    0.02241623    0.06754801
     atom   48 type  2   force =     0.01538543    0.00975197    0.00647982
     atom   49 type  1   force =    -0.08347353    0.07697531   -0.08751213
     atom   50 type  1   force =    -0.09018410   -0.00505496    0.04131722
     atom   51 type  1   force =     0.08483875   -0.06522122   -0.05036604
     atom   52 type  2   force =     0.00408365   -0.00901195   -0.00392762
     atom   53 type  2   force =     0.01117691   -0.00415887    0.00422455
     atom   54 type  2   force =     0.07805790   -0.01338894   -0.04166848
     atom   55 type  2   force =    -0.07227971    0.04826437    0.03305810
     atom   56 type  2   force =     0.06443013    0.02562565    0.01056927
     atom   57 type  2   force =    -0.02182308   -0.06460443    0.06380103
     atom   58 type  1   force =     0.03036691   -0.02711733    0.08234115
     atom   59 type  1   force =     0.03605020   -0.04546580   -0.10374153
     atom   60 type  1   force =     0.03416720   -0.07353169    0.04759463
     atom   61 type  2   force =    -0.04101154   -0.02972980   -0.00354676
     atom   62 type  2   force =    -0.02399074    0.08035558   -0.01915844
     atom   63 type  2   force =    -0.02838587   -0.04550511    0.06864359
     atom   64 type  2   force =     0.02363818   -0.01347604    0.04002711
     atom   65 type  2   force =    -0.06989716    0.05092793   -0.10286280
     atom   66 type  2   force =    -0.00201649   -0.00718775   -0.00552677
     atom   67 type  1   force =     0.13789612    0.12700275    0.10587116
     atom   68 type  2   force =    -0.03717495   -0.04004698   -0.05704482
     atom   69 type  2   force =    -0.20241998   -0.04766837    0.10745587
     atom   70 type  1   force =     0.11006527   -0.02245110    0.16528510
     atom   71 type  2   force =    -0.05014704   -0.16340471   -0.09229528
     atom   72 type  2   force =     0.00331941   -0.00795630    0.00498341

     Total force =     1.102910     Total SCF correction =     0.000050

     Computing stress (Cartesian axis) and pressure

          total   stress  (Ry/bohr**3)                   (kbar)     P=       54.63
   0.00030727   0.00013323   0.00006210           45.20       19.60        9.13
   0.00013323   0.00041458  -0.00007757           19.60       60.99      -11.41
   0.00006210  -0.00007757   0.00039224            9.13      -11.41       57.70

     Writing all to output data dir /n/holyscratch01/kozinsky_lab/sfalletta/QE/SiO2/SiO2-T300-Ex-0/SiO2.save/

     General routines

     Parallel routines

     Electric-field routines

   This run was terminated on:   6: 1:41   3Feb2024

   JOB DONE.