     Program PWSCF v.7.1 starts on 15Feb2024 at 17: 9:35

     Reading input from /n/holyscratch01/kozinsky_lab/sfalletta/QE/SiO2/SiO2-sc222-relaxing-Ez-k222-1e-3/SiO2-relax.inp
Warning: card &CELL ignored
Warning: card / ignored

     Current dimensions of program PWSCF are:
     Max number of different atomic species (ntypx) = 10
     Max number of k-points (npk) =  40000
     Max angular momentum in pseudopotentials (lmaxx) =  4

     IMPORTANT: XC functional enforced from input :
     Exchange-correlation= PBE
                           (   1   4   3   4   0   0   0)
     Any further DFT definition will be discarded
     Please, verify this is what you really want

     Found identity + (  0.0000  0.0000  0.5000) symmetry
     This is a supercell, fractional translations are disabled

     R & G space division:  proc/nbgrp/npool/nimage =     112
     Subspace diagonalization in iterative solution of the eigenvalue problem:
     one sub-group per band group will be used

     Using Slab Decomposition

     bravais-lattice index     =            8
     lattice parameter (alat)  =      18.8417  a.u.
     unit-cell volume          =    6365.9664 (a.u.)^3
     number of atoms/cell      =           72
     number of atomic types    =            2
     number of electrons       =       384.00
     number of Kohn-Sham states=          192
     kinetic-energy cutoff     =     100.0000  Ry
     charge density cutoff     =     800.0000  Ry
     scf convergence threshold =      1.0E-12
     mixing beta               =       0.7000
     number of iterations used =            8  plain     mixing
     energy convergence thresh.=      1.0E-12
     force convergence thresh. =      1.0E-10
     Exchange-correlation= PBE
                           (   1   4   3   4   0   0   0)
     nstep                     =           50

     Using Berry phase electric field
     In a.u.(Ry)  cartesian system of reference
        0.0000000000
        0.0000000000
        0.0010000000
     In a.u.(Ry)  crystal system of reference
        0.0000000000
        0.0000000000
        0.0010000000
     Number of iterative cycles:   1

     celldm(1)=  18.841714  celldm(2)=   0.866025  celldm(3)=   1.098936
     celldm(4)=   0.000000  celldm(5)=   0.000000  celldm(6)=   0.000000

     crystal axes: (cart. coord. in units of alat)
               a(1) = (   1.000000   0.000000   0.000000 )
               a(2) = (   0.000000   0.866025   0.000000 )
               a(3) = (   0.000000   0.000000   1.098936 )

     reciprocal axes: (cart. coord. in units 2 pi/alat)
               b(1) = (  1.000000  0.000000  0.000000 )
               b(2) = (  0.000000  1.154701  0.000000 )
               b(3) = (  0.000000  0.000000  0.909971 )

     PseudoPot. # 1 for Si read from file:
     /n/holyscratch01/kozinsky_lab/sfalletta/QE/Inputs/Si.upf
     MD5 check sum: 1e49d63d1c5892e9c2567cdfc797a7ef
     Pseudo is Norm-conserving + core correction, Zval =  4.0
     Generated using ONCVPSP code by D. R. Hamann
     Using radial grid of 1510 points,  6 beta functions with:
                l(1) =   0
                l(2) =   0
                l(3) =   1
                l(4) =   1
                l(5) =   2
                l(6) =   2

     PseudoPot. # 2 for O  read from file:
     /n/holyscratch01/kozinsky_lab/sfalletta/QE/Inputs/O.upf
     MD5 check sum: e161f86cb4953fdc9aae83e76c3f29b8
     Pseudo is Norm-conserving + core correction, Zval =  6.0
     Generated using ONCVPSP code by D. R. Hamann
     Using radial grid of  936 points,  5 beta functions with:
                l(1) =   0
                l(2) =   0
                l(3) =   1
                l(4) =   1
                l(5) =   2

     atomic species   valence    mass     pseudopotential
        Si             4.00    28.08550     Si( 1.00)
        O              6.00    15.99900     O ( 1.00)

     No symmetry found

   Cartesian axes

     site n.     atom                  positions (alat units)
         1           Si  tau(   1) = (  -0.1182878   0.2048803   0.4578902  )
         2           Si  tau(   2) = (   0.1317116   0.2281327   0.2747340  )
         3           Si  tau(   3) = (   0.2365745  -0.0000004   0.0915781  )
         4           O   tau(   4) = (  -0.1086666   0.3196418   0.0239383  )
         5           O   tau(   5) = (   0.0811502   0.3672992   0.2070951  )
         6           O   tau(   6) = (   0.0275164   0.1790847   0.3902508  )
         7           O   tau(   7) = (   0.1413336   0.1133713   0.1592166  )
         8           O   tau(   8) = (   0.2775158   0.2539273   0.3423728  )
         9           O   tau(   9) = (   0.3311506   0.0657129   0.5255294  )
        10           Si  tau(  10) = (  -0.1182877   0.2048806   1.0073582  )
        11           Si  tau(  11) = (   0.1317117   0.2281329   0.8242020  )
        12           Si  tau(  12) = (   0.2365744  -0.0000005   0.6410463  )
        13           O   tau(  13) = (  -0.1086663   0.3196416   0.5734064  )
        14           O   tau(  14) = (   0.0811503   0.3672991   0.7565637  )
        15           O   tau(  15) = (   0.0275163   0.1790848   0.9397196  )
        16           O   tau(  16) = (   0.1413337   0.1133717   0.7086855  )
        17           O   tau(  17) = (   0.2775161   0.2539275   0.8918414  )
        18           O   tau(  18) = (   0.3311511   0.0657129   1.0749975  )
        19           Si  tau(  19) = (  -0.1182865   0.6611459   0.2747338  )
        20           Si  tau(  20) = (  -0.0134250   0.4330136   0.0915775  )
        21           O   tau(  21) = (  -0.1688501   0.8003133   0.2070944  )
        22           O   tau(  22) = (  -0.1086655   0.5463850   0.1592162  )
        23           O   tau(  23) = (   0.0275163   0.6869414   0.3423724  )
        24           O   tau(  24) = (   0.0811500   0.4987260   0.5255288  )
        25           Si  tau(  25) = (  -0.1182868   0.6611455   0.8242017  )
        26           Si  tau(  26) = (  -0.0134252   0.4330133   0.6410455  )
        27           O   tau(  27) = (  -0.1688501   0.8003126   0.7565633  )
        28           O   tau(  28) = (  -0.1086661   0.5463848   0.7086850  )
        29           O   tau(  29) = (   0.0275164   0.6869409   0.8918407  )
        30           O   tau(  30) = (   0.0811506   0.4987257   1.0749969  )
        31           Si  tau(  31) = (   0.3817124   0.2048795   0.4578902  )
        32           Si  tau(  32) = (   0.6317128   0.2281322   0.2747345  )
        33           Si  tau(  33) = (   0.7365755   0.0000005   0.0915782  )
        34           O   tau(  34) = (   0.3913335   0.3196411   0.0239394  )
        35           O   tau(  35) = (   0.5811490   0.3673000   0.2070951  )
        36           O   tau(  36) = (   0.5275155   0.1790841   0.3902518  )
        37           O   tau(  37) = (   0.6413336   0.1133715   0.1592168  )
        38           O   tau(  38) = (   0.7775153   0.2539279   0.3423723  )
        39           O   tau(  39) = (   0.8311502   0.0657129   0.5255294  )
        40           Si  tau(  40) = (   0.3817126   0.2048797   1.0073582  )
        41           Si  tau(  41) = (   0.6317129   0.2281323   0.8242022  )
        42           Si  tau(  42) = (   0.7365756   0.0000002   0.6410462  )
        43           O   tau(  43) = (   0.3913338   0.3196409   0.5734072  )
        44           O   tau(  44) = (   0.5811496   0.3672997   0.7565631  )
        45           O   tau(  45) = (   0.5275155   0.1790846   0.9397205  )
        46           O   tau(  46) = (   0.6413337   0.1133715   0.7086856  )
        47           O   tau(  47) = (   0.7775159   0.2539281   0.8918408  )
        48           O   tau(  48) = (   0.8311502   0.0657131   1.0749972  )
        49           Si  tau(  49) = (   0.1317116   0.6378931   0.4578902  )
        50           Si  tau(  50) = (   0.3817119   0.6611452   0.2747348  )
        51           Si  tau(  51) = (   0.4865749   0.4330122   0.0915787  )
        52           O   tau(  52) = (   0.1413345   0.7526544   0.0239390  )
        53           O   tau(  53) = (   0.3311501   0.8003123   0.2070958  )
        54           O   tau(  54) = (   0.2775174   0.6120976   0.3902510  )
        55           O   tau(  55) = (   0.3913334   0.5463841   0.1592171  )
        56           O   tau(  56) = (   0.5275161   0.6869403   0.3423721  )
        57           O   tau(  57) = (   0.5811505   0.4987255   0.5255289  )
        58           Si  tau(  58) = (   0.1317120   0.6378929   1.0073578  )
        59           Si  tau(  59) = (   0.3817121   0.6611451   0.8242022  )
        60           Si  tau(  60) = (   0.4865753   0.4330121   0.6410461  )
        61           O   tau(  61) = (   0.1413342   0.7526544   0.5734078  )
        62           O   tau(  62) = (   0.3311505   0.8003122   0.7565643  )
        63           O   tau(  63) = (   0.2775173   0.6120970   0.9397188  )
        64           O   tau(  64) = (   0.3913339   0.5463845   0.7086850  )
        65           O   tau(  65) = (   0.5275165   0.6869400   0.8918407  )
        66           O   tau(  66) = (   0.5811503   0.4987256   1.0749976  )
        67           Si  tau(  67) = (   0.6317136   0.6378925   0.4578899  )
        68           O   tau(  68) = (   0.6413335   0.7526536   0.0239383  )
        69           O   tau(  69) = (   0.7775153   0.6120976   0.3902516  )
        70           Si  tau(  70) = (   0.6317135   0.6378924   1.0073581  )
        71           O   tau(  71) = (   0.6413337   0.7526534   0.5734063  )
        72           O   tau(  72) = (   0.7775151   0.6120971   0.9397206  )

     number of k points=     8
                       cart. coord. in units 2pi/alat
        k(    1) = (   0.0000000   0.0000000   0.0000000), wk =   0.2500000
        k(    2) = (   0.0000000   0.0000000   0.4549855), wk =   0.2500000
        k(    3) = (   0.0000000   0.5773503   0.0000000), wk =   0.2500000
        k(    4) = (   0.0000000   0.5773503   0.4549855), wk =   0.2500000
        k(    5) = (   0.5000000   0.0000000   0.0000000), wk =   0.2500000
        k(    6) = (   0.5000000   0.0000000   0.4549855), wk =   0.2500000
        k(    7) = (   0.5000000   0.5773503   0.0000000), wk =   0.2500000
        k(    8) = (   0.5000000   0.5773503   0.4549855), wk =   0.2500000

     Initial potential from superposition of free atoms

     starting charge     383.9851, renormalised to     384.0000
     Starting wfcs are  288 randomized atomic wfcs

     Self-consistent Calculation

     iteration #  1     ecut=   100.00 Ry     beta= 0.70
     Davidson diagonalization with overlap
     ethr =  1.00E-02,  avg # of iterations =  2.0

     Expectation value of exp(iGx):  (7.53457745022832193E-002,-1.42308659189744111E-004)   1.0000000000000000
     Electronic Dipole per cell (Ry a.u.)  -1.6019813219574554E-002
     Ionic Dipole per cell (Ry a.u.)   3304.1298547372130

[...]

     Expectation value of exp(iGx):        (0.11674476967256739,5.51102622150885686E-003)   1.0989361747729789
     Electronic Dipole per cell (Ry a.u.)  0.43967398851089429
     Ionic Dipole per cell (Ry a.u.)   5622.2366695215997
Electronic Dipole on Cartesian axes
           1  -1.6019813219574554E-002
[...]
O             3.9018913467        5.4502740407        1.5853944492
O             5.2617814932        6.8479139329        3.4115626150
O             5.7922296616        4.9713952002        5.2377521460
Si            1.3125803817        6.3597165365       10.0482040085
Si            3.8066317106        6.5916712746        8.2220268536
Si            4.8513869889        4.3182040271        6.3958511545
O             1.4091037046        7.5068936511        5.7150744720
O             3.3039589018        7.9784270397        7.5412579566
O             2.7649073985        6.1016682304        9.3674232273
O             3.9018926155        5.4502842699        7.0639284545
O             5.2617932931        6.8479113386        8.8901018381
O             5.7922272470        4.9713959604       10.7162869867
Si            6.2979006529        6.3597187633        4.5696835748
O             6.3944016810        7.5068867822        0.2365335027
O             7.7502029837        6.1016728255        3.8888942946
Si            6.2979013977        6.3597194184       10.0482059826
O             6.3944030821        7.5068852545        5.7150625137
O             7.7501932219        6.1016687716        9.3674380680

     Writing config-only to output data dir /n/holyscratch01/kozinsky_lab/sfalletta/QE/SiO2/SiO2-sc222-relaxing-Ez-k222-1e-3/SiO2.save/
     NEW-OLD atomic charge density approx. for the potential

     Self-consistent Calculation

[...]

     Threshold (ethr) on eigenvalues was too large:
     Diagonalizing with lowered threshold

     Davidson diagonalization with overlap
     ethr =  4.55E-12,  avg # of iterations =  4.2

[...]

     total energy              =   -1803.49127221 Ry
     estimated scf accuracy    <          3.6E-12 Ry

     iteration #  6     ecut=   100.00 Ry     beta= 0.70
     Davidson diagonalization with overlap
     ethr =  1.00E-13,  avg # of iterations =  1.0

[...]

     Expectation value of exp(iGx):  (1.52533504927017290E-002,-1.70110280209474498E-006)  0.86602540378443849
     Electronic Dipole per cell (Ry a.u.)  -8.1918403447035965E-004
     Ionic Dipole per cell (Ry a.u.)   4246.0379064500712

     Expectation value of exp(iGx):   (7.09849643854224832E-002,1.90280480420796441E-002)   1.0989361747729789
     Electronic Dipole per cell (Ry a.u.)   2.4411481924063376
     Ionic Dipole per cell (Ry a.u.)   5621.6928102544234
Electronic Dipole on Cartesian axes
           1  -3.7353228497007326E-002
           2  -8.1918403447035965E-004
           3   2.4411481924063376
Ionic Dipole on Cartesian axes
           1   3304.1298573570944
           2   4246.0379064500712
           3   5621.6928102544234

     End of self-consistent calculation

[...]

          k = 0.5000 0.5774 0.4550 (107528 PWs)   bands (ev):

   -16.6782 -16.6782 -16.6779 -16.6778 -16.6762 -16.6762 -16.6758 -16.6758
   -16.0956 -16.0956 -16.0941 -16.0941 -16.0874 -16.0874 -16.0858 -16.0858
   -15.4686 -15.4686 -15.4653 -15.4653 -15.4549 -15.4549 -15.4514 -15.4514
   -15.0042 -15.0042 -14.9990 -14.9990 -14.9986 -14.9986 -14.9949 -14.9949
   -14.9834 -14.9834 -14.9806 -14.9806 -14.9800 -14.9800 -14.9735 -14.9735
   -14.9555 -14.9555 -14.9523 -14.9523 -14.9471 -14.9471 -14.9462 -14.9462
    -6.3328  -6.3328  -6.3324  -6.3324  -6.3311  -6.3311  -6.3307  -6.3307
    -5.0954  -5.0954  -5.0952  -5.0952  -5.0932  -5.0932  -5.0930  -5.0930
    -3.9105  -3.9105  -3.9103  -3.9102  -3.9090  -3.9090  -3.9088  -3.9088
    -3.2245  -3.2245  -3.2135  -3.2135  -3.2103  -3.2103  -3.1989  -3.1989
    -2.8923  -2.8923  -2.8872  -2.8872  -2.8858  -2.8858  -2.8808  -2.8808
    -2.7057  -2.7057  -2.7034  -2.7034  -2.6721  -2.6721  -2.6702  -2.6702
    -0.9351  -0.9351  -0.9331  -0.9331  -0.9070  -0.9070  -0.9047  -0.9047
    -0.5753  -0.5753  -0.5739  -0.5739  -0.5731  -0.5731  -0.5718  -0.5718
    -0.3555  -0.3555  -0.3511  -0.3511  -0.3299  -0.3299  -0.3271  -0.3271
    -0.1426  -0.1426  -0.1383  -0.1383  -0.0757  -0.0757  -0.0727  -0.0727
     0.1834   0.1834   0.1876   0.1876   0.2244   0.2244   0.2305   0.2305
     0.5357   0.5357   0.5401   0.5401   0.6087   0.6087   0.6097   0.6097
     0.6773   0.6773   0.6799   0.6799   0.7385   0.7385   0.7423   0.7423
     0.9837   0.9837   0.9843   0.9843   0.9887   0.9887   0.9896   0.9896
     1.2500   1.2500   1.2519   1.2519   1.3046   1.3046   1.3091   1.3091
     1.3757   1.3757   1.3790   1.3790   1.4203   1.4203   1.4224   1.4224
     1.7351   1.7351   1.7353   1.7353   1.8138   1.8138   1.8147   1.8147
     2.0347   2.0347   2.0352   2.0352   2.0890   2.0890   2.0898   2.0898

     highest occupied level (ev):     2.1511

!    total energy              =   -1803.49127221 Ry
     estimated scf accuracy    <          3.0E-13 Ry

     The total energy is the sum of the following terms:
     one-electron contribution =    -855.93805452 Ry
     hartree contribution      =     632.27799073 Ry
     xc contribution           =    -484.71620280 Ry
     ewald contribution        =   -1089.49087165 Ry

     convergence has been achieved in   6 iterations

     Forces acting on atoms (cartesian axes, Ry/au):

     atom    1 type  1   force =    -0.00000440   -0.00000360   -0.00004043
     atom    2 type  1   force =     0.00002915   -0.00000291   -0.00004803
     atom    3 type  1   force =     0.00003123   -0.00000478   -0.00002766
     atom    4 type  2   force =     0.00001009    0.00000597    0.00000869
     atom    5 type  2   force =    -0.00000086   -0.00001120    0.00001229
     atom    6 type  2   force =    -0.00003966    0.00000014    0.00003374
     atom    7 type  2   force =    -0.00002380    0.00003126    0.00003088
     atom    8 type  2   force =    -0.00000688    0.00000539    0.00000180
     atom    9 type  2   force =    -0.00000791   -0.00001921    0.00001557
     atom   10 type  1   force =    -0.00000994   -0.00000875   -0.00000069
     atom   11 type  1   force =     0.00004009   -0.00001081    0.00003146
     atom   12 type  1   force =     0.00003393    0.00000211    0.00001129
     atom   13 type  2   force =     0.00000731    0.00000580    0.00000878
     atom   14 type  2   force =    -0.00002394    0.00002307   -0.00002330
     atom   15 type  2   force =     0.00000122    0.00000561   -0.00000285
     atom   16 type  2   force =    -0.00000873   -0.00000499   -0.00000406
     atom   17 type  2   force =    -0.00004722    0.00000806   -0.00003296
     atom   18 type  2   force =    -0.00000883   -0.00001619    0.00001518
     atom   19 type  1   force =    -0.00002384    0.00001124   -0.00003822
     atom   20 type  1   force =     0.00000793   -0.00000905   -0.00002797
     atom   21 type  2   force =     0.00002239   -0.00003794    0.00003687
     atom   22 type  2   force =    -0.00001321    0.00001621    0.00001982
     atom   23 type  2   force =     0.00001455    0.00000587    0.00001470
     atom   24 type  2   force =    -0.00000527   -0.00001779    0.00001263
     atom   25 type  1   force =    -0.00001217    0.00000349    0.00004111
     atom   26 type  1   force =     0.00001061   -0.00000192    0.00001198
     atom   27 type  2   force =    -0.00000107   -0.00000327    0.00000091
     atom   28 type  2   force =     0.00000216   -0.00002035   -0.00001539
     atom   29 type  2   force =    -0.00002580    0.00000865   -0.00002001
     atom   30 type  2   force =    -0.00000653   -0.00001522    0.00001278
     atom   31 type  1   force =     0.00001489    0.00001007   -0.00001943
     atom   32 type  1   force =    -0.00004560    0.00001171   -0.00005053
     atom   33 type  1   force =    -0.00003361   -0.00000701   -0.00003150
     atom   34 type  2   force =     0.00000747   -0.00000011    0.00000397
     atom   35 type  2   force =     0.00001994   -0.00003571    0.00003359
     atom   36 type  2   force =    -0.00001134    0.00000494    0.00001388
     atom   37 type  2   force =    -0.00000459    0.00000664    0.00001252
     atom   38 type  2   force =     0.00005508    0.00000316    0.00004085
     atom   39 type  2   force =     0.00001484    0.00000545   -0.00000832
     atom   40 type  1   force =     0.00000944    0.00000482    0.00002040
     atom   41 type  1   force =    -0.00003330    0.00000404    0.00002874
     atom   42 type  1   force =    -0.00003096   -0.00000064    0.00000860
     atom   43 type  2   force =     0.00000505    0.00000063    0.00000475
     atom   44 type  2   force =    -0.00000336   -0.00000141   -0.00000197
     atom   45 type  2   force =     0.00002856    0.00001013   -0.00002202
     atom   46 type  2   force =     0.00001043   -0.00002947   -0.00002241
     atom   47 type  2   force =     0.00001377    0.00000586    0.00000554
     atom   48 type  2   force =     0.00001342    0.00000775   -0.00000791
     atom   49 type  1   force =     0.00004176    0.00001326   -0.00003108
     atom   50 type  1   force =     0.00000620    0.00000164   -0.00006093
     atom   51 type  1   force =    -0.00001069   -0.00000498   -0.00003085
     atom   52 type  2   force =    -0.00000297   -0.00001424   -0.00000660
     atom   53 type  2   force =    -0.00000148   -0.00001251    0.00001150
     atom   54 type  2   force =    -0.00005979    0.00000044    0.00004605
     atom   55 type  2   force =    -0.00001477    0.00002015    0.00002250
     atom   56 type  2   force =     0.00003372    0.00000204    0.00002838
     atom   57 type  2   force =     0.00001184    0.00000261   -0.00000444
     atom   58 type  1   force =     0.00003566    0.00000840    0.00000881
     atom   59 type  1   force =     0.00001774   -0.00000619    0.00001855
     atom   60 type  1   force =    -0.00000813    0.00000115    0.00000833
     atom   61 type  2   force =    -0.00000547   -0.00001387   -0.00000610
     atom   62 type  2   force =    -0.00002454    0.00002152   -0.00002377
     atom   63 type  2   force =    -0.00001885    0.00000590    0.00000968
     atom   64 type  2   force =    -0.00000004   -0.00001576   -0.00001200
     atom   65 type  2   force =    -0.00000740    0.00000486   -0.00000689
     atom   66 type  2   force =     0.00001074    0.00000526   -0.00000452
     atom   67 type  1   force =    -0.00003058   -0.00000312   -0.00002761
     atom   68 type  2   force =     0.00001886    0.00001615    0.00001635
     atom   69 type  2   force =     0.00000834    0.00000398    0.00000188
     atom   70 type  1   force =    -0.00003548   -0.00000832    0.00001223
     atom   71 type  2   force =     0.00001624    0.00001647    0.00001695
     atom   72 type  2   force =     0.00004835    0.00000942   -0.00003406

     Total force =     0.000300     Total SCF correction =     0.000002

     Computing stress (Cartesian axis) and pressure

          total   stress  (Ry/bohr**3)                   (kbar)     P=        6.79
   0.00004616   0.00000000  -0.00000000            6.79        0.00       -0.00
   0.00000000   0.00004617   0.00000000            0.00        6.79        0.00
  -0.00000000   0.00000000   0.00004617           -0.00        0.00        6.79

     Message from routine bfgs:
     history already reset at previous step: exiting
     Energy error            =      2.9E-09 Ry
     Gradient error          =      6.1E-05 Ry/Bohr

     bfgs failed after  11 scf cycles and  10 bfgs steps, convergence not achieved
     (criteria: energy <  1.0E-12 Ry, force <  1.0E-10 Ry/Bohr)

     End of BFGS Geometry Optimization

     Final energy             =   -1803.4912722112 Ry

     File /n/holyscratch01/kozinsky_lab/sfalletta/QE/SiO2/SiO2-sc222-relaxing-Ez-k222-1e-3/SiO2.bfgs deleted, as requested
Begin final coordinates

ATOMIC_POSITIONS (angstrom)
Si           -1.1800650113        2.0423223288        4.5696881174
Si            1.3139732112        2.2742721072        2.7435130773
Si            2.3587253239        0.0008062138        0.9173336172
O            -1.0835542806        3.1894953171        0.2365348021
O             0.8113005150        3.6610353870        2.0627129910
O             0.2722557804        1.7842739166        3.8888866654
O             1.4092444668        1.1328711784        1.5853897526
O             2.7691369106        2.5305128740        3.4115719671
O             3.2995804387        0.6540019548        5.2377515230
Si           -1.1800630573        2.0423260475       10.0482078999
Si            1.3139716534        2.2742760761        8.2220250892
Si            2.3587239342        0.0008045851        6.3958562433
O            -1.0835522170        3.1894928246        5.7150641578
O             0.8113064879        3.6610273749        7.5412521805
O             0.2722475400        1.7842751377        9.3674290853
O             1.4092416957        1.1328808534        7.0639323684
O             2.7691486109        2.5305147832        8.8901118078
O             3.2995840057        0.6540015726       10.7162808946
Si           -1.1786596794        6.5916729352        2.7435106144
Si           -0.1339194220        4.3182093030        0.9173305310
O            -1.6813559057        7.9784462994        2.0627080813
O            -1.0834023583        5.4502812715        1.5853915314
O             0.2764841262        6.8479216885        3.4115684713
O             0.8069262842        4.9714036089        5.2377467052
Si           -1.1786644598        6.5916709838        8.2220225426
Si           -0.1339219146        4.3182065326        6.3958510910
O            -1.6813518533        7.9784336146        7.5412493487
O            -1.0834113136        5.4502859136        7.0639327769
O             0.2764942172        6.8479164843        8.8901055438
O             0.8069307824        4.9714004813       10.7162754460
Si            3.8052334688        2.0423151593        4.5696838644
Si            6.2992942066        2.2742679252        2.7435158208
Si            7.3440437182        0.0008095243        0.9173326492
O             3.9017497927        3.1894919380        0.2365394249
O             5.7965930445        3.6610419765        2.0627134437
O             5.2575524750        1.7842680683        3.8888946879
O             6.3945410816        1.1328789328        1.5853950823
O             7.7544226702        2.5305168017        3.4115609735
O             8.2848767841        0.6539989735        5.2377564735
Si            3.8052361959        2.0423185680       10.0482048010
Si            6.2992930997        2.2742709190        8.2220251948
Si            7.3440432143        0.0008056471        6.3958539862
O             3.9017525931        3.1894912481        5.7150658868
O             5.7966021507        3.6610328933        7.5412480289
O             5.2575446566        1.7842724593        9.3674353855
O             6.3945378897        1.1328855867        7.0639366134
O             7.7544356937        2.5305184975        8.8900978773
O             8.2848762389        0.6540001868       10.7162835988
Si            1.3125764964        6.3597181221        4.5696874414
Si            3.8066320072        6.5916706386        2.7435195017
Si            4.8513844101        4.3182061016        0.9173354921
O             1.4091063574        7.5068931898        0.2365394490
O             3.3039508251        7.9784357647        2.0627190769
O             2.7649166552        6.1016739110        3.8888892244
O             3.9018913467        5.4502740407        1.5853944492
O             5.2617814932        6.8479139329        3.4115626150
O             5.7922296616        4.9713952002        5.2377521460
Si            1.3125803817        6.3597165365       10.0482040085
Si            3.8066317106        6.5916712746        8.2220268536
Si            4.8513869889        4.3182040271        6.3958511545
O             1.4091037046        7.5068936511        5.7150744720
O             3.3039589018        7.9784270397        7.5412579566
O             2.7649073985        6.1016682304        9.3674232273
O             3.9018926155        5.4502842699        7.0639284545
O             5.2617932931        6.8479113386        8.8901018381
O             5.7922272470        4.9713959604       10.7162869867
Si            6.2979006529        6.3597187633        4.5696835748
O             6.3944016810        7.5068867822        0.2365335027
O             7.7502029837        6.1016728255        3.8888942946
Si            6.2979013977        6.3597194184       10.0482059826
O             6.3944030821        7.5068852545        5.7150625137
O             7.7501932219        6.1016687716        9.3674380680
End final coordinates

     Writing all to output data dir /n/holyscratch01/kozinsky_lab/sfalletta/QE/SiO2/SiO2-sc222-relaxing-Ez-k222-1e-3/SiO2.save/

     General routines

     Parallel routines

     Electric-field routines

   This run was terminated on:   5:28:27  16Feb2024

   JOB DONE.