     Program PWSCF v.7.1 starts on  2Feb2024 at  7:53:52

     Reading input from /n/holyscratch01/kozinsky_lab/sfalletta/QE/SiO2/SiO2-T300-Ez-0/SiO2-scf.inp

     Current dimensions of program PWSCF are:
     Max number of different atomic species (ntypx) = 10
     Max number of k-points (npk) =  40000
     Max angular momentum in pseudopotentials (lmaxx) =  4

     IMPORTANT: XC functional enforced from input :
     Exchange-correlation= PBE
                           (   1   4   3   4   0   0   0)
     Any further DFT definition will be discarded
     Please, verify this is what you really want

     R & G space division:  proc/nbgrp/npool/nimage =     112
     Subspace diagonalization in iterative solution of the eigenvalue problem:
     one sub-group per band group will be used

     Using Slab Decomposition

     bravais-lattice index     =           14
     lattice parameter (alat)  =      18.8417  a.u.
     unit-cell volume          =    6365.9664 (a.u.)^3
     number of atoms/cell      =           72
     number of atomic types    =            2
     number of electrons       =       384.00
     number of Kohn-Sham states=          220
     kinetic-energy cutoff     =     100.0000  Ry
     charge density cutoff     =     800.0000  Ry
     scf convergence threshold =      1.0E-08
     mixing beta               =       0.7000
     number of iterations used =            8  plain     mixing
     Exchange-correlation= PBE
                           (   1   4   3   4   0   0   0)

     Using Berry phase electric field
     In a.u.(Ry)  cartesian system of reference
        0.0000000000
        0.0000000000
        0.0001000000
     In a.u.(Ry)  crystal system of reference
        0.0000000000
        0.0000000000
        0.0001000000
     Number of iterative cycles:   1

     celldm(1)=  18.841714  celldm(2)=   0.866025  celldm(3)=   1.098936
     celldm(4)=   0.000000  celldm(5)=   0.000000  celldm(6)=   0.000000

     crystal axes: (cart. coord. in units of alat)
               a(1) = (   1.000000   0.000000   0.000000 )
               a(2) = (   0.000000   0.866025   0.000000 )
               a(3) = (   0.000000   0.000000   1.098936 )

     reciprocal axes: (cart. coord. in units 2 pi/alat)
               b(1) = (  1.000000  0.000000  0.000000 )
               b(2) = (  0.000000  1.154701  0.000000 )
               b(3) = (  0.000000  0.000000  0.909971 )

     PseudoPot. # 1 for Si read from file:
     /n/holyscratch01/kozinsky_lab/sfalletta/QE/Inputs/Si.upf
     MD5 check sum: 1e49d63d1c5892e9c2567cdfc797a7ef
     Pseudo is Norm-conserving + core correction, Zval =  4.0
     Generated using ONCVPSP code by D. R. Hamann
     Using radial grid of 1510 points,  6 beta functions with:
                l(1) =   0
                l(2) =   0
                l(3) =   1
                l(4) =   1
                l(5) =   2
                l(6) =   2

     PseudoPot. # 2 for O  read from file:
     /n/holyscratch01/kozinsky_lab/sfalletta/QE/Inputs/O.upf
     MD5 check sum: e161f86cb4953fdc9aae83e76c3f29b8
     Pseudo is Norm-conserving + core correction, Zval =  6.0
     Generated using ONCVPSP code by D. R. Hamann
     Using radial grid of  936 points,  5 beta functions with:
                l(1) =   0
                l(2) =   0
                l(3) =   1
                l(4) =   1
                l(5) =   2

     atomic species   valence    mass     pseudopotential
        Si             4.00    28.08550     Si( 1.00)
        O              6.00    15.99900     O ( 1.00)

     No symmetry found

   Cartesian axes

     site n.     atom                  positions (alat units)
         1           Si  tau(   1) = (   0.8813035   0.2172857   0.4659607  )
         2           Si  tau(   2) = (   0.1343238   0.2333319   0.2914988  )
         3           Si  tau(   3) = (   0.2383927   0.8564063   0.1010430  )
         4           O   tau(   4) = (   0.9214375   0.3207027   0.0064787  )
         5           O   tau(   5) = (   0.1079934   0.3627493   0.2060788  )
         6           O   tau(   6) = (   0.0227171   0.1991313   0.4044137  )
         7           O   tau(   7) = (   0.1229554   0.0989275   0.1822627  )
         8           O   tau(   8) = (   0.2818896   0.2416242   0.3523658  )
         9           O   tau(   9) = (   0.3337240   0.0563689   0.5145374  )
        10           Si  tau(  10) = (   0.8922758   0.1913595   1.0153044  )
        11           Si  tau(  11) = (   0.1336428   0.2131676   0.8251846  )
        12           Si  tau(  12) = (   0.2355664   0.0005642   0.6377606  )
        13           O   tau(  13) = (   0.8749819   0.3387718   0.5661873  )
        14           O   tau(  14) = (   0.0756980   0.3505253   0.7685320  )
        15           O   tau(  15) = (   0.0396649   0.1533708   0.9327688  )
        16           O   tau(  16) = (   0.1401811   0.1215162   0.7044517  )
        17           O   tau(  17) = (   0.2767304   0.2412150   0.8880132  )
        18           O   tau(  18) = (   0.3330279   0.0777264   0.0060730  )
        19           Si  tau(  19) = (   0.8785514   0.6495924   0.2801615  )
        20           Si  tau(  20) = (   0.0142748   0.4209203   0.0814573  )
        21           O   tau(  21) = (   0.8288985   0.7898607   0.2103483  )
        22           O   tau(  22) = (   0.9248525   0.5370326   0.1716546  )
        23           O   tau(  23) = (   0.0019080   0.6754605   0.3723134  )
        24           O   tau(  24) = (   0.0908774   0.5120030   0.5511350  )
        25           Si  tau(  25) = (   0.8834879   0.6569250   0.8315944  )
        26           Si  tau(  26) = (   0.9689181   0.4231548   0.6600762  )
        27           O   tau(  27) = (   0.8406771   0.7849172   0.7408457  )
        28           O   tau(  28) = (   0.8828611   0.5282237   0.7349012  )
        29           O   tau(  29) = (   0.0284158   0.6778976   0.9082347  )
        30           O   tau(  30) = (   0.1008464   0.5006897   1.0854004  )
        31           Si  tau(  31) = (   0.3903945   0.1959841   0.4544257  )
        32           Si  tau(  32) = (   0.6350888   0.2374650   0.2641304  )
        33           Si  tau(  33) = (   0.7426821   0.8580562   0.0964391  )
        34           O   tau(  34) = (   0.3964664   0.3277193   0.0047873  )
        35           O   tau(  35) = (   0.5993086   0.3639969   0.1831634  )
        36           O   tau(  36) = (   0.5337991   0.1747186   0.3725310  )
        37           O   tau(  37) = (   0.6430562   0.1192044   0.1607756  )
        38           O   tau(  38) = (   0.7887605   0.2740375   0.3430855  )
        39           O   tau(  39) = (   0.8278043   0.0860395   0.5278145  )
        40           Si  tau(  40) = (   0.3766000   0.2038943   1.0073310  )
        41           Si  tau(  41) = (   0.6320258   0.2494081   0.8224716  )
        42           Si  tau(  42) = (   0.7352372   0.0055785   0.6452256  )
        43           O   tau(  43) = (   0.4035823   0.3025383   0.5736873  )
        44           O   tau(  44) = (   0.5722260   0.3934746   0.7657649  )
        45           O   tau(  45) = (   0.5240344   0.1808887   0.9320637  )
        46           O   tau(  46) = (   0.6461664   0.1319529   0.7094343  )
        47           O   tau(  47) = (   0.7831219   0.2395221   0.8890653  )
        48           O   tau(  48) = (   0.8376001   0.0555046   1.0794229  )
        49           Si  tau(  49) = (   0.1293853   0.6365260   0.4717336  )
        50           Si  tau(  50) = (   0.3723164   0.6453710   0.2711039  )
        51           Si  tau(  51) = (   0.4873104   0.4334752   0.0847911  )
        52           O   tau(  52) = (   0.1490692   0.7537867   0.0162825  )
        53           O   tau(  53) = (   0.3286530   0.7825382   0.2046074  )
        54           O   tau(  54) = (   0.2587255   0.6093160   0.3838533  )
        55           O   tau(  55) = (   0.3958215   0.5194198   0.1762461  )
        56           O   tau(  56) = (   0.5090152   0.6942657   0.3312086  )
        57           O   tau(  57) = (   0.5597162   0.5079511   0.4994732  )
        58           Si  tau(  58) = (   0.1410025   0.6363916   1.0049239  )
        59           Si  tau(  59) = (   0.3787302   0.6676836   0.8184427  )
        60           Si  tau(  60) = (   0.4745499   0.4452287   0.6270602  )
        61           O   tau(  61) = (   0.1421809   0.7626708   0.5703254  )
        62           O   tau(  62) = (   0.3286902   0.8031147   0.7565298  )
        63           O   tau(  63) = (   0.2749111   0.6119889   0.9202941  )
        64           O   tau(  64) = (   0.3804002   0.5668101   0.6818974  )
        65           O   tau(  65) = (   0.5207367   0.6862050   0.8906139  )
        66           O   tau(  66) = (   0.5723724   0.5167219   1.0749096  )
        67           Si  tau(  67) = (   0.6146768   0.6408628   0.4341361  )
        68           O   tau(  68) = (   0.6369814   0.7597964   0.0283921  )
        69           O   tau(  69) = (   0.7680506   0.6118465   0.3794012  )
        70           Si  tau(  70) = (   0.6210997   0.6519002   1.0005310  )
        71           O   tau(  71) = (   0.6322835   0.7869101   0.5598266  )
        72           O   tau(  72) = (   0.7704657   0.6311612   0.9433399  )

     number of k points=     8
                       cart. coord. in units 2pi/alat
        k(    1) = (   0.0000000   0.0000000   0.0000000), wk =   0.2500000
        k(    2) = (   0.0000000   0.0000000   0.4549855), wk =   0.2500000
        k(    3) = (   0.0000000   0.5773503   0.0000000), wk =   0.2500000
        k(    4) = (   0.0000000   0.5773503   0.4549855), wk =   0.2500000
        k(    5) = (   0.5000000   0.0000000   0.0000000), wk =   0.2500000
        k(    6) = (   0.5000000   0.0000000   0.4549855), wk =   0.2500000
        k(    7) = (   0.5000000   0.5773503   0.0000000), wk =   0.2500000
        k(    8) = (   0.5000000   0.5773503   0.4549855), wk =   0.2500000

     Initial potential from superposition of free atoms

     starting charge     383.9851, renormalised to     384.0000
     Starting wfcs are  288 randomized atomic wfcs

     Self-consistent Calculation

     iteration #  1     ecut=   100.00 Ry     beta= 0.70
     Davidson diagonalization with overlap
     ethr =  1.00E-02,  avg # of iterations =  3.0

     Expectation value of exp(iGx):  (6.78985112165731569E-002,-3.46633077162933484E-002)   1.0000000000000000
     Electronic Dipole per cell (Ry a.u.)  -4.0036015902902973
     Ionic Dipole per cell (Ry a.u.)   4797.7395854892329

[...]

     Expectation value of exp(iGx):        (0.11768424979499151,1.37923651199384385E-002)   1.0989361747729789
     Electronic Dipole per cell (Ry a.u.)   1.0874310942616405
     Ionic Dipole per cell (Ry a.u.)   5445.5764487352608
Electronic Dipole on Cartesian axes
           1  -4.0036015902902973
           2  -7.9969357054492445
           3   1.0874310942616405
Ionic Dipole on Cartesian axes
           1   4797.7395854892329
           2   4434.4358181568914
           3   5445.5764487352608

     total energy              =   -1789.83917588 Ry
     estimated scf accuracy    <      19.24576713 Ry

[...]

     iteration #  6     ecut=   100.00 Ry     beta= 0.70
     Davidson diagonalization with overlap
     c_bands:  1 eigenvalues not converged
     ethr =  7.23E-06,  avg # of iterations = 12.6

[...]

     iteration # 11     ecut=   100.00 Ry     beta= 0.70
     Davidson diagonalization with overlap
     ethr =  1.78E-10,  avg # of iterations = 10.4

[...]

     total energy              =   -1797.74230292 Ry
     estimated scf accuracy    <       0.00000003 Ry

     iteration # 13     ecut=   100.00 Ry     beta= 0.70
     Davidson diagonalization with overlap
     c_bands:  1 eigenvalues not converged
     ethr =  6.69E-12,  avg # of iterations = 13.2

[...]

     Expectation value of exp(iGx):  (7.45045721472515146E-003,-1.33951952712641001E-002)  0.86602540378443849
     Electronic Dipole per cell (Ry a.u.)  -7.8096618901229444
     Ionic Dipole per cell (Ry a.u.)   4434.4358181568914

     Expectation value of exp(iGx):   (7.37776431005008337E-002,5.80586514346844145E-003)   1.0989361747729789
     Electronic Dipole per cell (Ry a.u.)  0.73199156828787737
     Ionic Dipole per cell (Ry a.u.)   5445.5764487352608
Electronic Dipole on Cartesian axes
           1  -4.1818806413349856
           2  -7.8096618901229444
           3  0.73199156828787737
Ionic Dipole on Cartesian axes
           1   4797.7395854892329
           2   4434.4358181568914
           3   5445.5764487352608

     End of self-consistent calculation

          k = 0.0000 0.0000 0.0000 (107453 PWs)   bands (ev):

   -17.5471 -17.3533 -17.1434 -16.9709 -16.9334 -16.9051 -16.8203 -16.6364
   -16.5548 -16.4650 -16.4587 -16.4063 -16.2976 -16.1850 -16.0462 -15.9939
   -15.9738 -15.8857 -15.8623 -15.8141 -15.7351 -15.6991 -15.6295 -15.5243
   -15.4322 -15.3781 -15.3641 -15.3169 -15.2642 -15.2383 -15.2076 -15.1443
   -15.0729 -15.0355 -14.9672 -14.9174 -14.8944 -14.8115 -14.7346 -14.6410
   -14.3944 -14.3749 -14.3358 -14.3065 -14.0566 -14.0351 -13.7844 -13.6674
    -7.4479  -6.8124  -6.5828  -6.4375  -6.3785  -6.2874  -6.0445  -5.9772
    -5.8431  -5.3846  -5.3203  -5.2203  -5.1562  -5.0945  -4.8256  -4.6494
    -4.4315  -4.3848  -4.2407  -4.1270  -4.0499  -3.9855  -3.8534  -3.7486
    -3.6967  -3.6244  -3.5938  -3.4720  -3.3797  -3.2627  -3.2312  -3.1847
    -3.1341  -3.1049  -3.0555  -3.0310  -2.9204  -2.8740  -2.8178  -2.6440
    -2.5714  -2.5550  -2.5027  -2.3336  -2.2628  -2.0554  -1.9571  -1.8164
    -1.4004  -1.3470  -1.3140  -1.2355  -1.1136  -1.0846  -1.0423  -0.9998
    -0.9365  -0.9248  -0.8519  -0.8371  -0.8185  -0.7884  -0.6771  -0.6215
    -0.5808  -0.5716  -0.5367  -0.4709  -0.4449  -0.4282  -0.3519  -0.3261
    -0.3089  -0.2061  -0.1866  -0.1543  -0.1486  -0.0845  -0.0535  -0.0107
     0.0197   0.0444   0.0511   0.1155   0.1629   0.1949   0.2172   0.2720
     0.2999   0.3267   0.3610   0.3834   0.4350   0.4693   0.4928   0.5294
     0.5597   0.6421   0.6777   0.6968   0.7377   0.7948   0.8118   0.8793
     0.8947   0.9130   0.9331   0.9675   0.9938   1.0274   1.0606   1.1024
     1.1548   1.1689   1.2064   1.2557   1.2747   1.3280   1.3759   1.4357
     1.4525   1.4874   1.5351   1.5842   1.6264   1.6551   1.7028   1.7395
     1.7858   1.8242   1.9157   1.9399   2.0423   2.0985   2.1416   2.1975
     2.2214   2.3426   2.4147   2.5357   2.5453   2.5795   2.6775   2.7181
     7.6804   9.2063   9.4115   9.5453   9.7220   9.7962  10.1293  10.2680
    10.3085  10.5388  10.6512  10.7007  10.7733  10.9153  10.9199  10.9756
    11.0916  11.1585  11.2146  11.2656  11.2983  11.3330  11.3603  11.4354
    11.5189  11.5723  11.6103  11.6466

[...]

          k = 0.5000 0.5774 0.4550 (107528 PWs)   bands (ev):

   -17.4584 -17.3848 -17.2276 -17.0319 -16.9464 -16.8621 -16.7760 -16.6597
   -16.5504 -16.4801 -16.4636 -16.4022 -16.2505 -16.2025 -16.1243 -16.0065
   -15.9341 -15.8967 -15.8233 -15.7642 -15.7091 -15.6889 -15.5675 -15.5244
   -15.4716 -15.3907 -15.3546 -15.3225 -15.2676 -15.2426 -15.2179 -15.1366
   -15.0616 -15.0177 -14.9834 -14.9282 -14.8823 -14.8523 -14.7328 -14.6399
   -14.4213 -14.3690 -14.3421 -14.3063 -14.0580 -14.0342 -13.7929 -13.6674
    -7.0065  -6.8776  -6.8008  -6.5094  -6.4655  -6.3499  -6.2376  -5.9431
    -5.6052  -5.4741  -5.3589  -5.2202  -5.1578  -4.9800  -4.9148  -4.8238
    -4.3922  -4.2497  -4.1904  -4.1011  -4.0538  -3.9584  -3.9174  -3.8375
    -3.7139  -3.5771  -3.5039  -3.3984  -3.3603  -3.2564  -3.2370  -3.1776
    -3.1553  -3.0932  -3.0384  -2.9446  -2.9278  -2.8332  -2.7672  -2.7175
    -2.6046  -2.5255  -2.4467  -2.3345  -2.3002  -2.1379  -2.0459  -1.8541
    -1.4587  -1.3411  -1.3060  -1.2084  -1.1640  -1.0641  -1.0291  -1.0105
    -0.9636  -0.9017  -0.8188  -0.7938  -0.7588  -0.7276  -0.6934  -0.6587
    -0.5896  -0.5557  -0.5227  -0.5060  -0.4693  -0.4308  -0.4133  -0.3457
    -0.2926  -0.2728  -0.2443  -0.1976  -0.1609  -0.1008  -0.0504  -0.0161
     0.0486   0.0828   0.1016   0.1288   0.1410   0.1882   0.2403   0.2542
     0.3098   0.3461   0.4048   0.4390   0.4666   0.5060   0.5205   0.5611
     0.5768   0.5951   0.6536   0.6776   0.7595   0.7824   0.8081   0.8540
     0.8630   0.8993   0.9230   0.9779   1.0035   1.0364   1.0880   1.1138
     1.1594   1.1726   1.2034   1.2671   1.3076   1.3242   1.3730   1.4114
     1.4295   1.5071   1.5502   1.5735   1.5837   1.6486   1.6935   1.7258
     1.8043   1.8324   1.9295   1.9725   2.0206   2.0390   2.1550   2.1988
     2.2310   2.3005   2.4361   2.4918   2.5665   2.5892   2.6565   2.7341
     8.7363   8.9363   9.2960   9.3614   9.4770   9.6350   9.6482   9.8161
    10.3804  10.4823  10.6549  10.7895  10.8281  10.9091  10.9748  11.0043
    11.0441  11.0993  11.2245  11.2810  11.2961  11.3340  11.3922  11.4312
    11.5116  11.5731  11.6351  11.6831

     highest occupied, lowest unoccupied level (ev):     2.7341    7.6804

!    total energy              =   -1797.74230291 Ry
     estimated scf accuracy    <          1.7E-09 Ry

     The total energy is the sum of the following terms:
     one-electron contribution =    -879.51686847 Ry
     hartree contribution      =     644.20914443 Ry
     xc contribution           =    -485.47600386 Ry
     ewald contribution        =   -1076.41394416 Ry

     convergence has been achieved in  13 iterations

     Forces acting on atoms (cartesian axes, Ry/au):

     atom    1 type  1   force =    -0.09379623    0.02203077   -0.10115314
     atom    2 type  1   force =    -0.02127723   -0.14761946   -0.05053352
     atom    3 type  1   force =    -0.13287568    0.13958532    0.02989664
     atom    4 type  2   force =    -0.05508980   -0.05613466   -0.01020275
     atom    5 type  2   force =    -0.02938524    0.04644283   -0.06498290
     atom    6 type  2   force =     0.12709301   -0.00349923   -0.02929262
     atom    7 type  2   force =     0.08165949   -0.01847215   -0.00882033
     atom    8 type  2   force =    -0.04350329    0.05243895   -0.06057763
     atom    9 type  2   force =    -0.00892629   -0.01817221    0.05415275
     atom   10 type  1   force =     0.01645371   -0.00088059   -0.16407948
     atom   11 type  1   force =     0.00535015    0.10457842    0.03869738
     atom   12 type  1   force =     0.05339241    0.10640209    0.00518807
     atom   13 type  2   force =    -0.00481287    0.04275950    0.07098796
     atom   14 type  2   force =    -0.07740564    0.09283565   -0.06148428
     atom   15 type  2   force =    -0.15669050   -0.03246131    0.14657265
     atom   16 type  2   force =     0.06178056   -0.17256229   -0.17611412
     atom   17 type  2   force =     0.02752970    0.01085516    0.01670997
     atom   18 type  2   force =     0.03007899    0.03636165   -0.06644463
     atom   19 type  1   force =     0.09856092    0.01057700   -0.12716139
     atom   20 type  1   force =    -0.07037607    0.06319267    0.26078517
     atom   21 type  2   force =     0.02170454   -0.01362187    0.00766830
     atom   22 type  2   force =    -0.01420687   -0.03625593   -0.05283228
     atom   23 type  2   force =     0.11155735    0.03260319    0.05270112
     atom   24 type  2   force =    -0.11042600   -0.18807463    0.14958513
     atom   25 type  1   force =     0.00280819    0.03605839    0.01428579
     atom   26 type  1   force =     0.22546053    0.01510573   -0.04903211
     atom   27 type  2   force =    -0.02158038    0.03517941   -0.00815856
     atom   28 type  2   force =    -0.04163052    0.04793286    0.03389967
     atom   29 type  2   force =    -0.13195200    0.02621511   -0.11838388
     atom   30 type  2   force =     0.11508414    0.07237527   -0.12764104
     atom   31 type  1   force =     0.08788865   -0.06031868    0.01132030
     atom   32 type  1   force =     0.14735269   -0.05459154    0.13262110
     atom   33 type  1   force =    -0.07931139    0.10579010    0.03394946
     atom   34 type  2   force =    -0.01318272    0.04547012    0.04649267
     atom   35 type  2   force =    -0.05295434    0.11135083   -0.05342290
     atom   36 type  2   force =    -0.06912858    0.02426110    0.06486686
     atom   37 type  2   force =     0.09029885   -0.13360674   -0.09901849
     atom   38 type  2   force =    -0.10916741   -0.02912072   -0.06347523
     atom   39 type  2   force =    -0.03335591   -0.11325166    0.08748576
     atom   40 type  1   force =     0.07796574   -0.05627504   -0.01671802
     atom   41 type  1   force =    -0.02063839   -0.07263495    0.03790862
     atom   42 type  1   force =     0.04077894    0.08298341   -0.03950219
     atom   43 type  2   force =     0.02811694    0.10110908    0.05411166
     atom   44 type  2   force =    -0.01652426    0.00531023   -0.06552415
     atom   45 type  2   force =    -0.00692309    0.01822338    0.00503555
     atom   46 type  2   force =     0.01497707   -0.03683619   -0.02129095
     atom   47 type  2   force =     0.03814842    0.02241234    0.06741269
     atom   48 type  2   force =     0.01566779    0.00992014    0.00616566
     atom   49 type  1   force =    -0.08397616    0.07691031   -0.08703396
     atom   50 type  1   force =    -0.09067795   -0.00502158    0.04183023
     atom   51 type  1   force =     0.08441215   -0.06521459   -0.04985451
     atom   52 type  2   force =     0.00421628   -0.00905449   -0.00412566
     atom   53 type  2   force =     0.01130790   -0.00413543    0.00404479
     atom   54 type  2   force =     0.07850226   -0.01338287   -0.04205755
     atom   55 type  2   force =    -0.07202945    0.04808600    0.03274293
     atom   56 type  2   force =     0.06463593    0.02564042    0.01043699
     atom   57 type  2   force =    -0.02156223   -0.06443983    0.06348754
     atom   58 type  1   force =     0.02984951   -0.02716694    0.08283096
     atom   59 type  1   force =     0.03558675   -0.04546130   -0.10321229
     atom   60 type  1   force =     0.03377099   -0.07348413    0.04806907
     atom   61 type  2   force =    -0.04086579   -0.02975191   -0.00372808
     atom   62 type  2   force =    -0.02386024    0.08036330   -0.01934246
     atom   63 type  2   force =    -0.02795264   -0.04546422    0.06826412
     atom   64 type  2   force =     0.02384597   -0.01364033    0.03974295
     atom   65 type  2   force =    -0.06969484    0.05093869   -0.10299671
     atom   66 type  2   force =    -0.00175944   -0.00700996   -0.00583481
     atom   67 type  1   force =     0.13736444    0.12695464    0.10631040
     atom   68 type  2   force =    -0.03703185   -0.04007299   -0.05724349
     atom   69 type  2   force =    -0.20196830   -0.04764725    0.10711272
     atom   70 type  1   force =     0.10953964   -0.02252059    0.16574696
     atom   71 type  2   force =    -0.05001426   -0.16344106   -0.09248232
     atom   72 type  2   force =     0.00377325   -0.00795476    0.00463781

     Total force =     1.102602     Total SCF correction =     0.000050

     Computing stress (Cartesian axis) and pressure

          total   stress  (Ry/bohr**3)                   (kbar)     P=       54.63
   0.00030753   0.00013323   0.00006210           45.24       19.60        9.14
   0.00013323   0.00041432  -0.00007743           19.60       60.95      -11.39
   0.00006210  -0.00007743   0.00039227            9.14      -11.39       57.71

     Writing all to output data dir /n/holyscratch01/kozinsky_lab/sfalletta/QE/SiO2/SiO2-T300-Ez-0/SiO2.save/

     General routines

     Parallel routines

     Electric-field routines

   This run was terminated on:   9:49:44   2Feb2024

   JOB DONE.