     Program PWSCF v.7.1 starts on 25Jan2024 at  8:40:40

     Reading input from /n/holyscratch01/kozinsky_lab/sfalletta/QE/BaTiO3/BaTiO3-Ez-0/BaTiO3-scf.inp

     Current dimensions of program PWSCF are:
     Max number of different atomic species (ntypx) = 10
     Max number of k-points (npk) =  40000
     Max angular momentum in pseudopotentials (lmaxx) =  4

     IMPORTANT: XC functional enforced from input :
     Exchange-correlation= PBE
                           (   1   4   3   4   0   0   0)
     Any further DFT definition will be discarded
     Please, verify this is what you really want

     R & G space division:  proc/nbgrp/npool/nimage =     112
     Subspace diagonalization in iterative solution of the eigenvalue problem:
     one sub-group per band group will be used

     Using Slab Decomposition

     bravais-lattice index     =            8
     lattice parameter (alat)  =      22.4844  a.u.
     unit-cell volume          =   12335.5658 (a.u.)^3
     number of atoms/cell      =          135
     number of atomic types    =            3
     number of electrons       =      1080.00
     number of Kohn-Sham states=          550
     kinetic-energy cutoff     =     100.0000  Ry
     charge density cutoff     =     800.0000  Ry
     scf convergence threshold =      1.0E-08
     mixing beta               =       0.7000
     number of iterations used =            8  plain     mixing
     Exchange-correlation= PBE
                           (   1   4   3   4   0   0   0)

     Using Berry phase electric field
     In a.u.(Ry)  cartesian system of reference
        0.0000000000
        0.0000000000
        0.0001000000
     In a.u.(Ry)  crystal system of reference
        0.0000000000
        0.0000000000
        0.0001000000
     Number of iterative cycles:   1

     celldm(1)=  22.484440  celldm(2)=   1.000000  celldm(3)=   1.085208
     celldm(4)=   0.000000  celldm(5)=   0.000000  celldm(6)=   0.000000

     crystal axes: (cart. coord. in units of alat)
               a(1) = (   1.000000   0.000000   0.000000 )
               a(2) = (   0.000000   1.000000   0.000000 )
               a(3) = (   0.000000   0.000000   1.085208 )

     reciprocal axes: (cart. coord. in units 2 pi/alat)
               b(1) = (  1.000000  0.000000  0.000000 )
               b(2) = (  0.000000  1.000000  0.000000 )
               b(3) = (  0.000000  0.000000  0.921483 )

     PseudoPot. # 1 for Ba read from file:
     /n/holyscratch01/kozinsky_lab/sfalletta/QE/Inputs/Ba.upf
     MD5 check sum: d1993ebf099ea5c29fdb9ecc5bd2bc91
     Pseudo is Norm-conserving + core correction, Zval = 10.0
     Generated using ONCVPSP code by D. R. Hamann
     Using radial grid of 1958 points,  6 beta functions with:
                l(1) =   0
                l(2) =   0
                l(3) =   1
                l(4) =   1
                l(5) =   2
                l(6) =   2

     PseudoPot. # 2 for Ti read from file:
     /n/holyscratch01/kozinsky_lab/sfalletta/QE/Inputs/Ti.upf
     MD5 check sum: 0b3868d933a8ea9356727c02a1b807de
     Pseudo is Norm-conserving + core correction, Zval = 12.0
     Generated using ONCVPSP code by D. R. Hamann
     Using radial grid of 1586 points,  6 beta functions with:
                l(1) =   0
                l(2) =   0
                l(3) =   1
                l(4) =   1
                l(5) =   2
                l(6) =   2

     PseudoPot. # 3 for O  read from file:
     /n/holyscratch01/kozinsky_lab/sfalletta/QE/Inputs/O.upf
     MD5 check sum: e161f86cb4953fdc9aae83e76c3f29b8
     Pseudo is Norm-conserving + core correction, Zval =  6.0
     Generated using ONCVPSP code by D. R. Hamann
     Using radial grid of  936 points,  5 beta functions with:
                l(1) =   0
                l(2) =   0
                l(3) =   1
                l(4) =   1
                l(5) =   2

     atomic species   valence    mass     pseudopotential
        Ba            10.00   137.32700     Ba( 1.00)
        Ti            12.00    47.90000     Ti( 1.00)
        O              6.00    15.99900     O ( 1.00)

     No symmetry found

   Cartesian axes

     site n.     atom                  positions (alat units)
         1           Ba  tau(   1) = (   0.1671100   0.1666366   0.0066311  )
         2           Ba  tau(   2) = (   0.1661381   0.1670119   0.3676971  )
         3           Ba  tau(   3) = (   0.1659578   0.1668603   0.7287679  )
         4           Ba  tau(   4) = (   0.1659012   0.4993308   0.0063206  )
         5           Ba  tau(   5) = (   0.1664560   0.4995451   0.3676626  )
         6           Ba  tau(   6) = (   0.1662392   0.5006403   0.7296442  )
         7           Ba  tau(   7) = (   0.1663484   0.8330388   0.0066455  )
         8           Ba  tau(   8) = (   0.1670837   0.8326971   0.3672552  )
         9           Ba  tau(   9) = (   0.1663140   0.8336942   0.7296110  )
        10           Ba  tau(  10) = (   0.4994594   0.1667972   0.0064742  )
        11           Ba  tau(  11) = (   0.4996638   0.1662977   0.3680782  )
        12           Ba  tau(  12) = (   0.4994775   0.1673545   0.7302039  )
        13           Ba  tau(  13) = (   0.4999590   0.5007581   0.0051661  )
        14           Ba  tau(  14) = (   0.4999213   0.4995552   0.3672442  )
        15           Ba  tau(  15) = (   0.5001697   0.5001384   0.7301216  )
        16           Ba  tau(  16) = (   0.5003124   0.8325296   0.0062827  )
        17           Ba  tau(  17) = (   0.4995536   0.8328925   0.3673754  )
        18           Ba  tau(  18) = (   0.4993503   0.8332585   0.7293004  )
        19           Ba  tau(  19) = (   0.8326000   0.1665611   0.0055600  )
        20           Ba  tau(  20) = (   0.8330152   0.1668609   0.3677644  )
        21           Ba  tau(  21) = (   0.8334447   0.1672913   0.7293456  )
        22           Ba  tau(  22) = (   0.8341135   0.5005527   0.0066809  )
        23           Ba  tau(  23) = (   0.8337037   0.4995026   0.3680627  )
        24           Ba  tau(  24) = (   0.8337396   0.5002605   0.7287913  )
        25           Ba  tau(  25) = (   0.8326523   0.8329781   0.0052388  )
        26           Ba  tau(  26) = (   0.8333698   0.8334970   0.3674128  )
        27           Ba  tau(  27) = (   0.8326296   0.8328897   0.7291536  )
        28           Ti  tau(  28) = (  -0.0002944  -0.0004341   0.1930358  )
        29           Ti  tau(  29) = (   0.0005339   0.0003599   0.5540189  )
        30           Ti  tau(  30) = (  -0.0006437  -0.0000752   0.9163041  )
        31           Ti  tau(  31) = (  -0.0001429   0.3325461   0.1930055  )
        32           Ti  tau(  32) = (   0.0005401   0.3332356   0.5542220  )
        33           Ti  tau(  33) = (  -0.0000310   0.3339478   0.9157437  )
        34           Ti  tau(  34) = (  -0.0003082   0.6669509   0.1919022  )
        35           Ti  tau(  35) = (   0.0004670   0.6665449   0.5540213  )
        36           Ti  tau(  36) = (  -0.0007861   0.6667452   0.9158596  )
        37           Ti  tau(  37) = (   0.3331564   0.0006305   0.1933256  )
        38           Ti  tau(  38) = (   0.3339072   0.0000636   0.5545303  )
        39           Ti  tau(  39) = (   0.3335423  -0.0003706   0.9155909  )
        40           Ti  tau(  40) = (   0.3326456   0.3337351   0.1927905  )
        41           Ti  tau(  41) = (   0.3327798   0.3341128   0.5552228  )
        42           Ti  tau(  42) = (   0.3329930   0.3333140   0.9161723  )
        43           Ti  tau(  43) = (   0.3327123   0.6658410   0.1934319  )
        44           Ti  tau(  44) = (   0.3327961   0.6660726   0.5540454  )
        45           Ti  tau(  45) = (   0.3330722   0.6660356   0.9161118  )
        46           Ti  tau(  46) = (   0.6665356   0.0006411   0.1927262  )
        47           Ti  tau(  47) = (   0.6659765  -0.0001386   0.5550344  )
        48           Ti  tau(  48) = (   0.6666418   0.0001201   0.9160040  )
        49           Ti  tau(  49) = (   0.6669289   0.3341030   0.1930877  )
        50           Ti  tau(  50) = (   0.6661130   0.3333293   0.5544685  )
        51           Ti  tau(  51) = (   0.6659645   0.3339459   0.9155774  )
        52           Ti  tau(  52) = (   0.6658367   0.6659632   0.1921498  )
        53           Ti  tau(  53) = (   0.6661177   0.6669611   0.5551561  )
        54           Ti  tau(  54) = (   0.6659414   0.6662498   0.9162308  )
        55           O   tau(  55) = (  -0.0007040   0.1672087   0.1717149  )
        56           O   tau(  56) = (   0.1670547   0.0000960   0.1717505  )
        57           O   tau(  57) = (  -0.0003949   0.0000949   0.3429300  )
        58           O   tau(  58) = (   0.0004525   0.1658581   0.5331034  )
        59           O   tau(  59) = (   0.1660687  -0.0006806   0.5339075  )
        60           O   tau(  60) = (   0.0008093   0.0005566   0.7045392  )
[...]
       121           O   tau( 121) = (   0.6661172   0.4995041   0.5330041  )
       122           O   tau( 122) = (   0.8338468   0.3339323   0.5337947  )
       123           O   tau( 123) = (   0.6664057   0.3340090   0.7054331  )
       124           O   tau( 124) = (   0.6658890   0.5007119   0.8953304  )
       125           O   tau( 125) = (   0.8332987   0.3334326   0.8952174  )
       126           O   tau( 126) = (   0.6665677   0.3338898  -0.0177124  )
       127           O   tau( 127) = (   0.6673090   0.8339934   0.1706790  )
       128           O   tau( 128) = (   0.8336815   0.6662267   0.1721913  )
       129           O   tau( 129) = (   0.6665079   0.6664644   0.3439900  )
       130           O   tau( 130) = (   0.6665797   0.8326032   0.5339298  )
       131           O   tau( 131) = (   0.8330184   0.6670267   0.5330141  )
       132           O   tau( 132) = (   0.6674656   0.6666378   0.7049422  )
       133           O   tau( 133) = (   0.6665895   0.8338098   0.8950555  )
       134           O   tau( 134) = (   0.8334946   0.6658271   0.8944904  )
       135           O   tau( 135) = (   0.6663896   0.6670366  -0.0187856  )

     number of k points=     1
                       cart. coord. in units 2pi/alat
        k(    1) = (   0.0000000   0.0000000   0.0000000), wk =   2.0000000

     Initial potential from superposition of free atoms

     starting charge    1079.5099, renormalised to    1080.0000
     Starting wfcs are  729 randomized atomic wfcs

     Self-consistent Calculation

     iteration #  1     ecut=   100.00 Ry     beta= 0.70
     Davidson diagonalization with overlap
     ethr =  1.00E-02,  avg # of iterations =  2.0

     Expectation value of exp(iGx):   (6.38869616448074158E-006,2.16382991219791181E-006)   1.0000000000000000
     Electronic Dipole per cell (Ry a.u.)   3.3053931924272355
     Ionic Dipole per cell (Ry a.u.)   13732.067592490663

[...]

     Expectation value of exp(iGx):   (2.24218166959227487E-006,3.78782138945714600E-005)   1.0852077191500298
     Electronic Dipole per cell (Ry a.u.)   16.604174844389199
     Ionic Dipole per cell (Ry a.u.)   16131.253304506745
Electronic Dipole on Cartesian axes
           1   3.3053931924272355
           2  -2.2172484130957160
           3   16.604174844389199
Ionic Dipole on Cartesian axes
           1   13732.067592490663
           2   13738.241707995414
           3   16131.253304506745

     total energy              =   -7391.82373178 Ry
     estimated scf accuracy    <      51.97134600 Ry

[...]

     iteration #  5     ecut=   100.00 Ry     beta= 0.70
     Davidson diagonalization with overlap
     c_bands:  1 eigenvalues not converged
     ethr =  4.32E-04,  avg # of iterations = 20.0

[...]

     iteration # 10     ecut=   100.00 Ry     beta= 0.70
     Davidson diagonalization with overlap
     ethr =  6.82E-07,  avg # of iterations = 12.0

[...]

     total energy              =   -7420.67739787 Ry
     estimated scf accuracy    <       0.00000003 Ry

     iteration # 25     ecut=   100.00 Ry     beta= 0.70
     Davidson diagonalization with overlap
     c_bands:  1 eigenvalues not converged
     ethr =  2.72E-12,  avg # of iterations = 20.0

[...]

     Expectation value of exp(iGx):  (1.57040461832576649E-007,-3.71725821823989802E-008)   1.0000000000000000
     Electronic Dipole per cell (Ry a.u.)  -2.3525430772417186
     Ionic Dipole per cell (Ry a.u.)   13738.241707995414

     Expectation value of exp(iGx): (-5.72061400292531244E-007,-1.77291871764701864E-006)   1.0852077191500298
     Electronic Dipole per cell (Ry a.u.)  -20.681929379911448
     Ionic Dipole per cell (Ry a.u.)   16131.253304506745
Electronic Dipole on Cartesian axes
           1   3.0321555516891205
           2  -2.3525430772417186
           3  -20.681929379911448
Ionic Dipole on Cartesian axes
           1   13732.067592490663
           2   13738.241707995414
           3   16131.253304506745

     End of self-consistent calculation

          k = 0.0000 0.0000 0.0000 (208381 PWs)   bands (ev):

   -46.7224 -46.7222 -46.7118 -46.7028 -46.7002 -46.6978 -46.6959 -46.6899
   -46.6834 -46.6779 -46.6708 -46.6676 -46.6560 -46.6531 -46.6473 -46.6458
   -46.6445 -46.6442 -46.6387 -46.6300 -46.6216 -46.6183 -46.6178 -46.6140
   -46.6107 -46.5870 -46.5789 -23.1163 -23.1038 -23.0983 -23.0964 -23.0911
   -23.0869 -23.0860 -23.0843 -23.0750 -23.0725 -23.0704 -23.0630 -23.0552
   -23.0543 -23.0535 -23.0512 -23.0479 -23.0451 -23.0369 -23.0344 -23.0271
   -23.0269 -23.0258 -23.0147 -23.0117 -22.9959 -22.9810 -22.9793 -22.9770
   -22.9760 -22.9758 -22.9650 -22.9615 -22.9611 -22.9568 -22.9566 -22.9501
   -22.9461 -22.9458 -22.9447 -22.9429 -22.9395 -22.9362 -22.9344 -22.9326
   -22.9286 -22.9278 -22.9246 -22.9212 -22.9198 -22.9145 -22.9115 -22.9095
   -22.9095 -22.9052 -22.9003 -22.8997 -22.8979 -22.8967 -22.8944 -22.8921
   -22.8900 -22.8809 -22.8765 -22.8764 -22.8761 -22.8747 -22.8744 -22.8743
   -22.8702 -22.8661 -22.8647 -22.8626 -22.8618 -22.8616 -22.8485 -22.8388
   -22.8305 -22.8287 -22.8272 -22.8241 -15.3540 -15.3169 -15.3056 -15.2876
   -15.2791 -15.2703 -15.2609 -15.2559 -15.2510 -15.2481 -15.2384 -15.2349
   -15.2309 -15.2228 -15.2208 -15.2125 -15.2047 -15.1986 -15.1918 -15.1894
   -15.1836 -15.1770 -15.1743 -15.1698 -15.1655 -15.1611 -15.1530  -7.1649
    -7.1600  -7.1508  -7.1396  -7.1389  -7.1305  -7.0497  -6.9537  -6.9411
    -6.9325  -6.9310  -6.9224  -6.9165  -6.9120  -6.9076  -6.9055  -6.8980
    -6.8919  -6.8869  -6.7065  -6.7002  -6.6961  -6.6840  -6.6745  -6.6705
    -6.6618  -6.6551  -6.5581  -6.5480  -6.5456  -6.5439  -6.5390  -6.5323
    -6.5207  -6.5142  -6.4901  -6.4623  -6.4490  -6.4309  -6.4236  -6.4185
    -6.4047  -6.3556  -6.3493  -6.3484  -6.3428  -6.3391  -6.3331  -6.3295
    -6.3268  -6.3078  -6.2952  -6.2872  -6.2729  -6.2709  -6.2634  -6.2525
    -6.2493  -6.2417  -6.2374  -6.2330  -6.2306  -6.2235  -6.2210  -6.2126
    -6.2081  -6.2029  -6.1978  -6.1883  -6.1866  -6.1758  -6.1699  -6.1694
    -6.1655  -6.1601  -6.1534  -6.1503  -6.1456  -6.1341  -6.1281  -6.1241
    -0.9104  -0.9090  -0.9048  -0.9029  -0.8975  -0.8945  -0.8872  -0.8825
    -0.7655  -0.7641  -0.7587  -0.7561  -0.7542  -0.7500  -0.7471  -0.7416
    -0.6609  -0.6580  -0.6490  -0.6458  -0.5433  -0.5119  -0.5062  -0.5045
    -0.4997  -0.4971  -0.4958  -0.4904  -0.4864  -0.4642  -0.4630  -0.4575
    -0.4532  -0.4527  -0.4498  -0.4481  -0.4465  -0.4425  -0.4389  -0.4373
    -0.4349  -0.4340  -0.4315  -0.4292  -0.4279  -0.4262  -0.4214  -0.3851
    -0.3832  -0.3718  -0.3710  -0.3304  -0.3289  -0.3220  -0.3191  -0.3143
    -0.3110  -0.3102  -0.3085  -0.3068  -0.3044  -0.3011  -0.2993  -0.2966
    -0.2922  -0.2903  -0.2869  -0.2816  -0.2798  -0.2737  -0.2691  -0.2441
    -0.2401  -0.2313  -0.2310  -0.2278  -0.2240  -0.2205  -0.2166  -0.1974
    -0.1895   5.8216   5.8356   5.8425   5.8507   5.8565   5.8632   5.8691
     5.8724   5.9091   5.9222   5.9341   5.9363   6.0262   6.0327   6.0360
     6.0420   6.0485   6.0518   6.0558   6.0600   6.1228   6.1272   6.1289
     6.1346   6.1401   6.1455   6.1531   6.1565   6.1950   6.2083   6.2173
     6.2306   6.2487   6.2623   6.3428   6.3647   6.3781   6.3815   6.3834
     6.3883   6.3930   6.3933   6.3995   6.4058   6.4077   6.4168   6.4187
     6.4222   6.4320   6.4389   6.4455   6.4514   6.4524   6.4597   6.4647
     6.4696   6.4736   6.4816   6.7176   6.7256   6.7321   6.7379   6.7383
     6.7418   6.7439   6.7516   6.8371   6.8430   6.8448   6.8493   6.8511
     6.8559   6.8583   6.8593   6.9317   6.9361   6.9415   6.9439   7.0371
     7.0401   7.0514   7.0549   7.0617   7.0654   7.0745   7.0752   7.0931
     7.1019   7.1037   7.1125   7.1393   7.1427   7.1436   7.1502   7.1521
     7.1534   7.1581   7.1601   7.1610   7.1655   7.1657   7.1695   7.1718
     7.1731   7.1802   7.1842   7.2052   7.2091   7.2145   7.2183   7.2491
     7.2568   7.2593   7.2636   7.2650   7.2715   7.2758   7.2809   7.2834
     7.3043   7.3068   7.3157   7.3195   7.3878   7.3926   7.3974   7.4035
     7.4045   7.4079   7.4102   7.4159   7.4226   7.4241   7.7193   7.7237
     7.7295   7.7356   7.7407   7.7440   7.7491   7.7526   7.7559   7.7586
     7.7687   7.7748   7.9931   7.9940   8.0215   8.0268   8.0404   8.0510
     8.0980   8.1098   8.1147   8.1262   8.2697   8.2769   8.2785   8.2825
     8.2861   8.2882   8.2921   8.2926   8.2958   8.3011   8.3034   8.3087
     8.3136   8.3164   8.3206   8.3229   8.3289   8.3321   8.3366   8.3394
     8.4279   8.4317   8.4399   8.4456   8.4725   8.4755   8.4799   8.4862
     8.4926   8.5909   8.6099   8.6172   8.6251   8.6473   8.6517   8.6565
     8.6577   8.6608   8.6650   8.6691   8.6711   8.6903   8.6948   8.7019
     8.7069   8.7270   8.8573   8.8633   8.8663   8.8703   8.8773   8.8800
     8.8848   8.8922   9.0308   9.0377   9.0435   9.0461   9.0507   9.0525
     9.0591   9.0620   9.0672   9.0713   9.0772   9.0858   9.0899   9.0941
     9.0975   9.1034   9.2323   9.2328   9.2400   9.2412   9.3125   9.3130
     9.4753   9.4899   9.5029   9.5121   9.5205   9.5249   9.5340   9.5401
     9.5704   9.5927   9.6065   9.6131  11.8012  11.8708  11.8793  12.6109
    12.6335  12.6437  12.6527  12.6586  12.6926  12.8796

     highest occupied, lowest unoccupied level (ev):     9.6131   11.8012

!    total energy              =   -7420.67739811 Ry
     estimated scf accuracy    <          9.2E-09 Ry

     The total energy is the sum of the following terms:
     one-electron contribution =   -2150.90462598 Ry
     hartree contribution      =    1695.25873826 Ry
     xc contribution           =   -1513.44358428 Ry
     ewald contribution        =   -5449.97341824 Ry

     convergence has been achieved in  25 iterations

     Forces acting on atoms (cartesian axes, Ry/au):

     atom    1 type  1   force =    -0.00187148   -0.00070443   -0.00383520
     atom    2 type  1   force =     0.00278670   -0.00295726    0.00070889
     atom    3 type  1   force =     0.00160003   -0.00210547    0.00406618
     atom    4 type  1   force =     0.00049764    0.00164959   -0.00132731
     atom    5 type  1   force =    -0.00161358    0.00136936   -0.00200978
     atom    6 type  1   force =    -0.00003053   -0.00173332    0.00282775
     atom    7 type  1   force =     0.00309019    0.00175660   -0.00159003
     atom    8 type  1   force =    -0.00150131    0.00340897    0.00117300
     atom    9 type  1   force =     0.00022215    0.00087073   -0.00048044
     atom   10 type  1   force =     0.00117921   -0.00026112   -0.00020942
     atom   11 type  1   force =     0.00006220    0.00079740   -0.00096201
     atom   12 type  1   force =     0.00035987   -0.00177567   -0.00040652
     atom   13 type  1   force =    -0.00137329   -0.00411273    0.00232600
     atom   14 type  1   force =     0.00083162    0.00114168    0.00245330
     atom   15 type  1   force =    -0.00059536   -0.00044313   -0.00198938
     atom   16 type  1   force =    -0.00356303    0.00536683    0.00109960
     atom   17 type  1   force =     0.00241244    0.00195460   -0.00025508
     atom   18 type  1   force =     0.00090430   -0.00000027    0.00049524
     atom   19 type  1   force =     0.00164325    0.00320267   -0.00012983
     atom   20 type  1   force =    -0.00055398   -0.00265338    0.00079727
     atom   21 type  1   force =     0.00026099   -0.00150902    0.00055747
     atom   22 type  1   force =    -0.00076295   -0.00354894   -0.00241704
     atom   23 type  1   force =    -0.00047283    0.00470682   -0.00017463
     atom   24 type  1   force =    -0.00090256   -0.00162192    0.00134791
     atom   25 type  1   force =     0.00070632    0.00175660    0.00266383
     atom   26 type  1   force =    -0.00195072   -0.00166614    0.00172408
     atom   27 type  1   force =     0.00261717    0.00236777   -0.00094068
     atom   28 type  2   force =    -0.00079089    0.00250320   -0.00412817
     atom   29 type  2   force =    -0.00184894   -0.00424574    0.00339828
     atom   30 type  2   force =     0.00573090    0.00593916   -0.00602377
     atom   31 type  2   force =    -0.00129741    0.00293574   -0.00690880
     atom   32 type  2   force =    -0.00494279    0.00046447    0.01007256
     atom   33 type  2   force =    -0.00021700   -0.00561591    0.00212034
     atom   34 type  2   force =    -0.00152080   -0.00723609    0.01553458
     atom   35 type  2   force =    -0.00721158    0.00612604    0.00274726
     atom   36 type  2   force =     0.00242898   -0.00119046    0.00635198
     atom   37 type  2   force =     0.00173459   -0.00613420   -0.00895313
     atom   38 type  2   force =    -0.00390102   -0.00036695   -0.00255849
     atom   39 type  2   force =    -0.00392264    0.00231807    0.01045489
     atom   40 type  2   force =     0.00517081   -0.00480368   -0.00072902
     atom   41 type  2   force =     0.00337553   -0.00901936   -0.00051430
     atom   42 type  2   force =    -0.00432941   -0.00536729   -0.00228591
     atom   43 type  2   force =    -0.00116059    0.00804550   -0.01350771
     atom   44 type  2   force =     0.00410694    0.00804456    0.00691342
     atom   45 type  2   force =    -0.00626069    0.00557222    0.00873522
     atom   46 type  2   force =    -0.00174810   -0.00342750    0.00243568
     atom   47 type  2   force =     0.00611218    0.00114330   -0.01119309
     atom   48 type  2   force =    -0.00157710    0.00004996   -0.00040497
     atom   49 type  2   force =    -0.00372947   -0.00741401   -0.01408924
     atom   50 type  2   force =     0.00032158    0.00175493    0.00443700
     atom   51 type  2   force =     0.00618004   -0.00483608    0.01391580
     atom   52 type  2   force =     0.00368062    0.00750982    0.01581887
     atom   53 type  2   force =     0.00292105    0.00039120   -0.01275805
     atom   54 type  2   force =     0.00346196    0.00279906   -0.00421995
     atom   55 type  3   force =     0.00255739    0.00043942   -0.00082001
     atom   56 type  3   force =    -0.00565526    0.00160779   -0.00032037
     atom   57 type  3   force =     0.00121371    0.00046252    0.00682931
     atom   58 type  3   force =     0.00014264    0.00926151   -0.00239101
     atom   59 type  3   force =     0.00304126    0.00239452   -0.00393819
     atom   60 type  3   force =    -0.00335487   -0.00182093    0.00281109
[...]
     atom  121 type  3   force =     0.00064742   -0.00248572   -0.00005233
     atom  122 type  3   force =     0.00077011   -0.00225426   -0.00141623
     atom  123 type  3   force =    -0.00010750   -0.00121693   -0.00166902
     atom  124 type  3   force =     0.00100453   -0.00266515   -0.00252949
     atom  125 type  3   force =    -0.00486871    0.00197425   -0.00285027
     atom  126 type  3   force =    -0.00104597    0.00033931   -0.01029107
     atom  127 type  3   force =    -0.00069283   -0.00599716    0.00020832
     atom  128 type  3   force =    -0.00091275    0.00250787   -0.00329081
     atom  129 type  3   force =    -0.00108459   -0.00030991   -0.01313630
     atom  130 type  3   force =    -0.00061163    0.00423356   -0.00039892
     atom  131 type  3   force =     0.00614362   -0.00279887    0.00094935
     atom  132 type  3   force =    -0.00258780   -0.00118535    0.01072571
     atom  133 type  3   force =     0.00076348   -0.00295170   -0.00202126
     atom  134 type  3   force =    -0.00103953    0.00292032    0.00084402
     atom  135 type  3   force =     0.00101210   -0.00114261    0.00725878

     Total force =     0.079911     Total SCF correction =     0.000220

     Computing stress (Cartesian axis) and pressure

          total   stress  (Ry/bohr**3)                   (kbar)     P=        0.57
   0.00000349  -0.00000002  -0.00000280            0.51       -0.00       -0.41
  -0.00000002   0.00000319  -0.00000094           -0.00        0.47       -0.14
  -0.00000280  -0.00000094   0.00000497           -0.41       -0.14        0.73

     Writing all to output data dir /n/holyscratch01/kozinsky_lab/sfalletta/QE/BaTiO3/BaTiO3-Ez-0/BaTiO3.save/

     General routines

     Parallel routines

     Electric-field routines

   This run was terminated on:  13:47: 4  25Jan2024

   JOB DONE.