     Program PWSCF v.7.1 starts on  3Feb2024 at 11: 6:55

     Reading input from /n/holyscratch01/kozinsky_lab/sfalletta/QE/SiO2/SiO2-T600-Ey-0/SiO2-scf.inp

     Current dimensions of program PWSCF are:
     Max number of different atomic species (ntypx) = 10
     Max number of k-points (npk) =  40000
     Max angular momentum in pseudopotentials (lmaxx) =  4

     IMPORTANT: XC functional enforced from input :
     Exchange-correlation= PBE
                           (   1   4   3   4   0   0   0)
     Any further DFT definition will be discarded
     Please, verify this is what you really want

     R & G space division:  proc/nbgrp/npool/nimage =     112
     Subspace diagonalization in iterative solution of the eigenvalue problem:
     one sub-group per band group will be used

     Using Slab Decomposition

     bravais-lattice index     =           14
     lattice parameter (alat)  =      18.8417  a.u.
     unit-cell volume          =    6365.9664 (a.u.)^3
     number of atoms/cell      =           72
     number of atomic types    =            2
     number of electrons       =       384.00
     number of Kohn-Sham states=          220
     kinetic-energy cutoff     =     100.0000  Ry
     charge density cutoff     =     800.0000  Ry
     scf convergence threshold =      1.0E-08
     mixing beta               =       0.7000
     number of iterations used =            8  plain     mixing
     Exchange-correlation= PBE
                           (   1   4   3   4   0   0   0)

     Using Berry phase electric field
     In a.u.(Ry)  cartesian system of reference
        0.0000000000
        0.0001000000
        0.0000000000
     In a.u.(Ry)  crystal system of reference
        0.0000000000
        0.0001000000
        0.0000000000
     Number of iterative cycles:   1

     celldm(1)=  18.841714  celldm(2)=   0.866025  celldm(3)=   1.098936
     celldm(4)=   0.000000  celldm(5)=   0.000000  celldm(6)=   0.000000

     crystal axes: (cart. coord. in units of alat)
               a(1) = (   1.000000   0.000000   0.000000 )
               a(2) = (   0.000000   0.866025   0.000000 )
               a(3) = (   0.000000   0.000000   1.098936 )

     reciprocal axes: (cart. coord. in units 2 pi/alat)
               b(1) = (  1.000000  0.000000  0.000000 )
               b(2) = (  0.000000  1.154701  0.000000 )
               b(3) = (  0.000000  0.000000  0.909971 )

     PseudoPot. # 1 for Si read from file:
     /n/holyscratch01/kozinsky_lab/sfalletta/QE/Inputs/Si.upf
     MD5 check sum: 1e49d63d1c5892e9c2567cdfc797a7ef
     Pseudo is Norm-conserving + core correction, Zval =  4.0
     Generated using ONCVPSP code by D. R. Hamann
     Using radial grid of 1510 points,  6 beta functions with:
                l(1) =   0
                l(2) =   0
                l(3) =   1
                l(4) =   1
                l(5) =   2
                l(6) =   2

     PseudoPot. # 2 for O  read from file:
     /n/holyscratch01/kozinsky_lab/sfalletta/QE/Inputs/O.upf
     MD5 check sum: e161f86cb4953fdc9aae83e76c3f29b8
     Pseudo is Norm-conserving + core correction, Zval =  6.0
     Generated using ONCVPSP code by D. R. Hamann
     Using radial grid of  936 points,  5 beta functions with:
                l(1) =   0
                l(2) =   0
                l(3) =   1
                l(4) =   1
                l(5) =   2

     atomic species   valence    mass     pseudopotential
        Si             4.00    28.08550     Si( 1.00)
        O              6.00    15.99900     O ( 1.00)

     No symmetry found

   Cartesian axes

     site n.     atom                  positions (alat units)
         1           Si  tau(   1) = (   0.8841790   0.2115197   0.4435277  )
         2           Si  tau(   2) = (   0.1360088   0.2222864   0.2853458  )
         3           Si  tau(   3) = (   0.2218812   0.8562469   0.0885200  )
         4           O   tau(   4) = (   0.9308211   0.2918639   0.0348738  )
         5           O   tau(   5) = (   0.0934266   0.3688612   0.2281015  )
         6           O   tau(   6) = (   0.0148497   0.1768197   0.3646007  )
         7           O   tau(   7) = (   0.1600976   0.1287525   0.1607726  )
         8           O   tau(   8) = (   0.2613913   0.2713476   0.3654823  )
         9           O   tau(   9) = (   0.3460472   0.0856930   0.5255348  )
        10           Si  tau(  10) = (   0.9033985   0.1907196   1.0162873  )
        11           Si  tau(  11) = (   0.1391701   0.2040026   0.8311631  )
        12           Si  tau(  12) = (   0.2573525   0.0056010   0.6344760  )
        13           O   tau(  13) = (   0.8968923   0.3366024   0.5409982  )
        14           O   tau(  14) = (   0.0687931   0.3117724   0.7281955  )
        15           O   tau(  15) = (   0.0248331   0.1502667   0.9275846  )
        16           O   tau(  16) = (   0.2235411   0.0567707   0.7785986  )
        17           O   tau(  17) = (   0.2659196   0.2933944   0.9161881  )
        18           O   tau(  18) = (   0.3170369   0.0743158   1.0630748  )
        19           Si  tau(  19) = (   0.8516604   0.6618735   0.2663579  )
        20           Si  tau(  20) = (   0.9944742   0.4227857   0.1061941  )
        21           O   tau(  21) = (   0.8018931   0.8022963   0.2069142  )
        22           O   tau(  22) = (   0.8974831   0.5383926   0.1567598  )
        23           O   tau(  23) = (   0.9984479   0.6938415   0.3716775  )
        24           O   tau(  24) = (   0.0809499   0.5007940   0.5494781  )
        25           Si  tau(  25) = (   0.8676133   0.6384507   0.8159685  )
        26           Si  tau(  26) = (   0.9867545   0.4246502   0.6473157  )
        27           O   tau(  27) = (   0.8422788   0.7775415   0.7234786  )
        28           O   tau(  28) = (   0.8983566   0.5249089   0.7197837  )
        29           O   tau(  29) = (   0.9673003   0.6471272   0.9456075  )
        30           O   tau(  30) = (   0.1061179   0.5000669   0.0050833  )
        31           Si  tau(  31) = (   0.3868902   0.2164432   0.4376344  )
        32           Si  tau(  32) = (   0.6446328   0.2189024   0.2674592  )
        33           Si  tau(  33) = (   0.7507768   0.0033077   0.0745000  )
        34           O   tau(  34) = (   0.4104405   0.3475095   0.0298776  )
        35           O   tau(  35) = (   0.5991050   0.3664401   0.2028683  )
        36           O   tau(  36) = (   0.5042362   0.1512355   0.3470391  )
        37           O   tau(  37) = (   0.6660508   0.1183098   0.1433965  )
        38           O   tau(  38) = (   0.7709451   0.2378180   0.3459700  )
        39           O   tau(  39) = (   0.8411716   0.0795476   0.5353827  )
        40           Si  tau(  40) = (   0.3798325   0.2447875   1.0137699  )
        41           Si  tau(  41) = (   0.6482425   0.2420906   0.8386110  )
        42           Si  tau(  42) = (   0.7591926   0.0106095   0.6424946  )
        43           O   tau(  43) = (   0.4187709   0.3316438   0.5574546  )
        44           O   tau(  44) = (   0.6234416   0.3501984   0.7148833  )
        45           O   tau(  45) = (   0.5139708   0.2139188   0.9194135  )
        46           O   tau(  46) = (   0.6861168   0.0989839   0.7499133  )
        47           O   tau(  47) = (   0.7973337   0.2544539   0.9277761  )
        48           O   tau(  48) = (   0.8519542   0.0540641   1.0663444  )
        49           Si  tau(  49) = (   0.1073626   0.6483458   0.4707929  )
        50           Si  tau(  50) = (   0.3514049   0.6648743   0.2817111  )
        51           Si  tau(  51) = (   0.5190647   0.4416472   0.1005606  )
        52           O   tau(  52) = (   0.1203748   0.7609367   0.0117073  )
        53           O   tau(  53) = (   0.2862986   0.7814600   0.1969449  )
        54           O   tau(  54) = (   0.2476810   0.6222691   0.3946360  )
        55           O   tau(  55) = (   0.4304463   0.5683416   0.1718782  )
        56           O   tau(  56) = (   0.4862312   0.6985644   0.3702934  )
        57           O   tau(  57) = (   0.5687648   0.5330479   0.5371780  )
        58           Si  tau(  58) = (   0.1019757   0.6316106   1.0197174  )
        59           Si  tau(  59) = (   0.3706355   0.6428677   0.8062178  )
        60           Si  tau(  60) = (   0.5203816   0.4265157   0.6439699  )
        61           O   tau(  61) = (   0.1274837   0.7858289   0.5587173  )
        62           O   tau(  62) = (   0.3606692   0.7487659   0.6915106  )
        63           O   tau(  63) = (   0.2350760   0.5985564   0.9173585  )
        64           O   tau(  64) = (   0.4236122   0.5054708   0.7534116  )
        65           O   tau(  65) = (   0.4768336   0.6816356   0.9158240  )
        66           O   tau(  66) = (   0.5951865   0.5237415   1.0898234  )
        67           Si  tau(  67) = (   0.6196885   0.6595226   0.4531891  )
        68           O   tau(  68) = (   0.6371378   0.7782235   0.0078980  )
        69           O   tau(  69) = (   0.7360536   0.6221939   0.3603382  )
        70           Si  tau(  70) = (   0.6084956   0.6623429   1.0006945  )
        71           O   tau(  71) = (   0.6469426   0.7727234   0.5580674  )
        72           O   tau(  72) = (   0.7217676   0.6221518   0.8881807  )

     number of k points=     8
                       cart. coord. in units 2pi/alat
        k(    1) = (   0.0000000   0.0000000   0.0000000), wk =   0.2500000
        k(    2) = (   0.0000000   0.0000000   0.4549855), wk =   0.2500000
        k(    3) = (   0.0000000   0.5773503   0.0000000), wk =   0.2500000
        k(    4) = (   0.0000000   0.5773503   0.4549855), wk =   0.2500000
        k(    5) = (   0.5000000   0.0000000   0.0000000), wk =   0.2500000
        k(    6) = (   0.5000000   0.0000000   0.4549855), wk =   0.2500000
        k(    7) = (   0.5000000   0.5773503   0.0000000), wk =   0.2500000
        k(    8) = (   0.5000000   0.5773503   0.4549855), wk =   0.2500000

     Initial potential from superposition of free atoms

     starting charge     383.9851, renormalised to     384.0000
     Starting wfcs are  288 randomized atomic wfcs

     Self-consistent Calculation

     iteration #  1     ecut=   100.00 Ry     beta= 0.70
     Davidson diagonalization with overlap
     ethr =  1.00E-02,  avg # of iterations =  3.0

     Expectation value of exp(iGx):   (7.30457295136053703E-002,2.86051537379567698E-002)   1.0000000000000000
     Electronic Dipole per cell (Ry a.u.)   3.1658084876483059
     Ionic Dipole per cell (Ry a.u.)   5220.7307615604614

[...]

     Expectation value of exp(iGx):       (0.12000689942326133,-3.93649339291519962E-003)   1.0989361747729789
     Electronic Dipole per cell (Ry a.u.) -0.30563678897662183
     Ionic Dipole per cell (Ry a.u.)   5446.6758445586356
Electronic Dipole on Cartesian axes
           1   3.1658084876483059
           2   8.7008027047955139
           3 -0.30563678897662183
Ionic Dipole on Cartesian axes
           1   5220.7307615604614
           2   4333.8671907424050
           3   5446.6758445586356

     total energy              =   -1789.03734971 Ry
     estimated scf accuracy    <      19.87210315 Ry

[...]

     iteration #  8     ecut=   100.00 Ry     beta= 0.70
     Davidson diagonalization with overlap
     c_bands:  1 eigenvalues not converged
     ethr =  9.13E-08,  avg # of iterations = 15.5

[...]

     iteration # 12     ecut=   100.00 Ry     beta= 0.70
     Davidson diagonalization with overlap
     c_bands:  1 eigenvalues not converged
     c_bands:  1 eigenvalues not converged
     c_bands:  1 eigenvalues not converged
     c_bands:  1 eigenvalues not converged
     ethr =  1.24E-11,  avg # of iterations = 19.6

[...]

     total energy              =   -1797.18315351 Ry
     estimated scf accuracy    <       0.00000002 Ry

     iteration # 13     ecut=   100.00 Ry     beta= 0.70
     Davidson diagonalization with overlap
     ethr =  5.00E-12,  avg # of iterations =  5.6

[...]

     Expectation value of exp(iGx):   (6.86416148682044477E-003,1.36749564166134992E-002)  0.86602540378443849
     Electronic Dipole per cell (Ry a.u.)   8.1210064352001687
     Ionic Dipole per cell (Ry a.u.)   4333.8671907424050

     Expectation value of exp(iGx):  (7.41285641009281626E-002,-2.35334332068347710E-003)   1.0989361747729789
     Electronic Dipole per cell (Ry a.u.) -0.29580933285239536
     Ionic Dipole per cell (Ry a.u.)   5446.6758445586356
Electronic Dipole on Cartesian axes
           1   3.0358070918266273
           2   8.1210064352001687
           3 -0.29580933285239536
Ionic Dipole on Cartesian axes
           1   5220.7307615604614
           2   4333.8671907424050
           3   5446.6758445586356

     End of self-consistent calculation

          k = 0.0000 0.0000 0.0000 (107453 PWs)   bands (ev):

   -17.9841 -17.7254 -17.6494 -17.2941 -17.1772 -17.0417 -17.0116 -16.8723
   -16.7855 -16.6624 -16.5565 -16.4687 -16.3932 -16.2409 -16.2257 -16.1511
   -16.1153 -16.0756 -15.8979 -15.8557 -15.7866 -15.6887 -15.6311 -15.5781
   -15.5250 -15.4607 -15.3988 -15.3123 -15.2084 -15.1767 -15.0985 -15.0725
   -15.0490 -14.9911 -14.9293 -14.8711 -14.7959 -14.6273 -14.5848 -14.5087
   -14.4908 -14.3735 -14.2312 -14.2110 -14.0613 -13.6141 -13.1818 -12.9785
    -7.6817  -7.0201  -6.9081  -6.5640  -6.5193  -6.2949  -6.2238  -6.1220
    -5.9595  -5.5913  -5.4212  -5.3271  -5.2526  -5.0983  -5.0889  -4.6492
    -4.6262  -4.4664  -4.3758  -4.1911  -4.0907  -3.9723  -3.9610  -3.8695
    -3.7888  -3.6602  -3.6040  -3.4574  -3.4457  -3.3782  -3.3057  -3.2109
    -3.1678  -3.0954  -3.0740  -2.9994  -2.8919  -2.8198  -2.7036  -2.5941
    -2.5573  -2.4953  -2.3864  -2.2749  -2.1751  -2.0152  -1.9071  -1.7471
    -1.6945  -1.5357  -1.4670  -1.3984  -1.3864  -1.2717  -1.2020  -1.1573
    -1.1543  -1.0707  -1.0268  -1.0062  -0.9112  -0.8904  -0.8465  -0.8191
    -0.7765  -0.7332  -0.7091  -0.6537  -0.6333  -0.5274  -0.4852  -0.3920
    -0.3672  -0.3254  -0.2543  -0.2112  -0.1589  -0.1476  -0.0378  -0.0248
     0.0085   0.0265   0.0519   0.1013   0.1138   0.1691   0.2300   0.2407
     0.2519   0.2888   0.3389   0.3560   0.4277   0.4663   0.4756   0.5585
     0.5793   0.6162   0.6551   0.6750   0.7309   0.7595   0.8310   0.8510
     0.8894   0.9632   0.9734   1.0075   1.0302   1.0857   1.1273   1.1812
     1.1980   1.2297   1.2912   1.3400   1.3652   1.4365   1.4812   1.5106
     1.5734   1.6022   1.6287   1.6874   1.7086   1.7855   1.8211   1.8697
     1.9468   2.0206   2.0682   2.0841   2.1258   2.1690   2.2659   2.3180
     2.4639   2.6158   2.7655   2.8008   2.9024   2.9880   3.0349   3.1591
     7.4912   8.6186   8.8431   9.1667   9.5576   9.6513   9.6953  10.1122
    10.1950  10.2629  10.4388  10.4607  10.5693  10.6482  10.7455  10.7992
    10.8021  10.9041  10.9661  11.0115  11.0540  11.1615  11.1948  11.3526
    11.4374  11.5059  11.5511  11.6073

[...]

          k = 0.5000 0.5774 0.4550 (107528 PWs)   bands (ev):

   -17.9622 -17.7345 -17.6378 -17.3423 -17.1874 -17.0579 -17.0437 -16.8443
   -16.7712 -16.6296 -16.4980 -16.4817 -16.3609 -16.3015 -16.2182 -16.1696
   -16.1598 -16.0672 -15.9153 -15.8400 -15.7661 -15.6778 -15.5935 -15.5883
   -15.5113 -15.4603 -15.3961 -15.3084 -15.2392 -15.1985 -15.1163 -15.0462
   -15.0035 -14.9743 -14.9015 -14.8946 -14.8113 -14.6331 -14.5874 -14.5267
   -14.4965 -14.3741 -14.2473 -14.2137 -14.0594 -13.6188 -13.1848 -12.9801
    -7.4049  -7.0727  -6.9065  -6.7891  -6.5076  -6.4596  -6.4003  -6.0551
    -5.7395  -5.5473  -5.3618  -5.2703  -5.1865  -5.1832  -5.0610  -4.9040
    -4.5880  -4.4500  -4.3871  -4.2584  -4.0982  -3.9692  -3.9235  -3.8203
    -3.7953  -3.6324  -3.5705  -3.4729  -3.4585  -3.3555  -3.2772  -3.2046
    -3.1660  -3.0637  -3.0329  -2.9611  -2.8597  -2.7932  -2.6769  -2.6669
    -2.5825  -2.5372  -2.4586  -2.1663  -2.1351  -2.1243  -1.9343  -1.8063
    -1.5666  -1.5340  -1.4951  -1.4286  -1.4073  -1.2840  -1.2489  -1.1889
    -1.0836  -1.0733  -1.0250  -1.0067  -0.9225  -0.9061  -0.8656  -0.8087
    -0.7779  -0.6961  -0.6756  -0.5939  -0.5756  -0.5250  -0.4936  -0.4302
    -0.3818  -0.3129  -0.2638  -0.2168  -0.2115  -0.1591  -0.1218  -0.0649
    -0.0266   0.0186   0.0669   0.0919   0.1245   0.1811   0.2495   0.2643
     0.3031   0.3508   0.3803   0.3949   0.4349   0.4391   0.4976   0.5419
     0.5718   0.6457   0.6480   0.6737   0.6922   0.7361   0.7821   0.8027
     0.8414   0.9272   1.0038   1.0270   1.0396   1.1048   1.1532   1.1766
     1.2082   1.2689   1.2773   1.3291   1.3368   1.4393   1.4931   1.5073
     1.5704   1.6120   1.6484   1.6616   1.6983   1.7964   1.8472   1.9011
     1.9250   2.0121   2.0655   2.0887   2.1410   2.2102   2.2618   2.3497
     2.5022   2.5516   2.8042   2.8334   2.8545   2.9281   2.9961   3.1628
     8.3038   8.6002   8.7650   8.9926   9.1633   9.3181   9.6318   9.8292
    10.0380  10.1437  10.3599  10.5377  10.6346  10.6547  10.7271  10.8387
    10.8974  10.9747  11.0324  11.1038  11.1302  11.2205  11.2516  11.3133
    11.4194  11.5132  11.5521  11.6339

     highest occupied, lowest unoccupied level (ev):     3.1691    7.4912

!    total energy              =   -1797.18315350 Ry
     estimated scf accuracy    <          1.8E-09 Ry

     The total energy is the sum of the following terms:
     one-electron contribution =    -908.16256221 Ry
     hartree contribution      =     658.74930813 Ry
     xc contribution           =    -486.18458019 Ry
     ewald contribution        =   -1061.15112041 Ry

     convergence has been achieved in  13 iterations

     Forces acting on atoms (cartesian axes, Ry/au):

     atom    1 type  1   force =     0.06022149   -0.06754891    0.18978416
     atom    2 type  1   force =     0.04090444    0.10678399   -0.13883475
     atom    3 type  1   force =    -0.02951402    0.29910124   -0.26008940
     atom    4 type  2   force =     0.00742141    0.05796271    0.06200965
     atom    5 type  2   force =    -0.06509835    0.04928489   -0.05038290
     atom    6 type  2   force =    -0.07191397   -0.09500541    0.08669964
     atom    7 type  2   force =     0.00161182   -0.08157328   -0.04205444
     atom    8 type  2   force =     0.00515208    0.02258205   -0.00747864
     atom    9 type  2   force =    -0.05044885   -0.02520788    0.03353532
     atom   10 type  1   force =     0.04691867    0.02800454    0.02637742
     atom   11 type  1   force =     0.14016689    0.02169466    0.02284141
     atom   12 type  1   force =     0.04348454   -0.18252991   -0.09126551
     atom   13 type  2   force =    -0.01761202    0.02200908    0.02774894
     atom   14 type  2   force =     0.03970145   -0.04251703    0.04411594
     atom   15 type  2   force =     0.08784994   -0.02252409   -0.03560363
     atom   16 type  2   force =    -0.11869235    0.18732317    0.06900241
     atom   17 type  2   force =    -0.13520239   -0.03116145   -0.09487023
     atom   18 type  2   force =     0.01613448    0.05180368    0.04346727
     atom   19 type  1   force =     0.21078600   -0.03073467    0.00839472
     atom   20 type  1   force =     0.15824715   -0.00635340    0.00139060
     atom   21 type  2   force =     0.09750596   -0.06078919    0.03617720
     atom   22 type  2   force =    -0.08380640    0.09317008    0.06712308
     atom   23 type  2   force =    -0.21400102   -0.00747825   -0.17085280
     atom   24 type  2   force =     0.08450616    0.13047720   -0.06529639
     atom   25 type  1   force =    -0.11166975    0.20884643    0.11275435
     atom   26 type  1   force =     0.04349553   -0.16497340   -0.11332563
     atom   27 type  2   force =     0.15720483   -0.16647273    0.12828034
     atom   28 type  2   force =    -0.05309527   -0.03540176    0.00801586
     atom   29 type  2   force =    -0.10955139    0.02293975   -0.10538248
     atom   30 type  2   force =    -0.06654463   -0.11268975    0.08750668
     atom   31 type  1   force =     0.08718824    0.00654655    0.16008689
     atom   32 type  1   force =    -0.26506977   -0.03241451   -0.11927825
     atom   33 type  1   force =    -0.09965722   -0.00266003    0.00234491
     atom   34 type  2   force =    -0.01959172   -0.02633573    0.01289563
     atom   35 type  2   force =     0.13036020   -0.13446784    0.15682795
     atom   36 type  2   force =     0.10381404    0.07579248   -0.04529107
     atom   37 type  2   force =    -0.03420841    0.08574778    0.00436154
     atom   38 type  2   force =     0.00687610    0.05850708   -0.01294765
     atom   39 type  2   force =     0.10496325    0.12022755   -0.14199771
     atom   40 type  1   force =    -0.02749874   -0.19932066    0.00628911
     atom   41 type  1   force =     0.10889921   -0.10029084   -0.06465640
     atom   42 type  1   force =    -0.19657249   -0.10556056   -0.02638314
     atom   43 type  2   force =     0.00508562   -0.06107349   -0.05637741
     atom   44 type  2   force =     0.24550159   -0.17134087    0.20286042
     atom   45 type  2   force =    -0.00027145    0.01266727    0.03801372
     atom   46 type  2   force =    -0.07194828    0.11683483    0.07467815
     atom   47 type  2   force =    -0.24128735    0.11253375   -0.16245176
     atom   48 type  2   force =     0.00674443   -0.10703860    0.02729003
     atom   49 type  1   force =     0.08482424   -0.04124753    0.07280687
     atom   50 type  1   force =     0.16667878   -0.07933586    0.02501850
     atom   51 type  1   force =    -0.18828004    0.19873330   -0.03984369
     atom   52 type  2   force =    -0.02759175    0.03672795    0.01568611
     atom   53 type  2   force =     0.12097557   -0.09703081    0.17664292
     atom   54 type  2   force =    -0.01364246   -0.03807370   -0.00736367
     atom   55 type  2   force =    -0.03938669   -0.05295666   -0.00018010
     atom   56 type  2   force =    -0.01458241    0.04838449   -0.02375796
     atom   57 type  2   force =     0.05180399   -0.03173359   -0.00032263
     atom   58 type  1   force =     0.20736466   -0.01383776   -0.09142069
     atom   59 type  1   force =    -0.12057906   -0.04233370    0.12648300
     atom   60 type  1   force =    -0.29205858    0.17792485   -0.13617704
     atom   61 type  2   force =     0.05692867    0.04321430    0.06329667
     atom   62 type  2   force =    -0.04021021    0.05651803   -0.07224362
     atom   63 type  2   force =    -0.00397191    0.07031454   -0.05751107
     atom   64 type  2   force =     0.03160258   -0.10621962   -0.05954690
     atom   65 type  2   force =     0.03185023    0.07576036    0.05938955
     atom   66 type  2   force =     0.06885554    0.01710000   -0.05865485
     atom   67 type  1   force =    -0.19245998    0.02910133    0.07168473
     atom   68 type  2   force =     0.00397629   -0.00487417   -0.02619138
     atom   69 type  2   force =     0.05438054   -0.09203141   -0.02894798
     atom   70 type  1   force =     0.01208924   -0.08910177   -0.02843053
     atom   71 type  2   force =     0.07449069    0.11799764    0.07112968
     atom   72 type  2   force =     0.00945235   -0.00037675    0.01240091

     Total force =     1.456565     Total SCF correction =     0.000052

     Computing stress (Cartesian axis) and pressure

          total   stress  (Ry/bohr**3)                   (kbar)     P=       93.54
   0.00072277  -0.00018526   0.00017071          106.32      -27.25       25.11
  -0.00018526   0.00045633  -0.00019261          -27.25       67.13      -28.33
   0.00017071  -0.00019261   0.00072844           25.11      -28.33      107.16

     Writing all to output data dir /n/holyscratch01/kozinsky_lab/sfalletta/QE/SiO2/SiO2-T600-Ey-0/SiO2.save/

     General routines

     Parallel routines

     Electric-field routines

   This run was terminated on:  15: 1:46   3Feb2024

   JOB DONE.