     Program PWSCF v.7.1 starts on  2Feb2024 at 13:46: 8

     Reading input from /n/holyscratch01/kozinsky_lab/sfalletta/QE/SiO2/SiO2-T600-Ex-0/SiO2-scf.inp

     Current dimensions of program PWSCF are:
     Max number of different atomic species (ntypx) = 10
     Max number of k-points (npk) =  40000
     Max angular momentum in pseudopotentials (lmaxx) =  4

     IMPORTANT: XC functional enforced from input :
     Exchange-correlation= PBE
                           (   1   4   3   4   0   0   0)
     Any further DFT definition will be discarded
     Please, verify this is what you really want

     R & G space division:  proc/nbgrp/npool/nimage =     112
     Subspace diagonalization in iterative solution of the eigenvalue problem:
     one sub-group per band group will be used

     Using Slab Decomposition

     bravais-lattice index     =           14
     lattice parameter (alat)  =      18.8417  a.u.
     unit-cell volume          =    6365.9664 (a.u.)^3
     number of atoms/cell      =           72
     number of atomic types    =            2
     number of electrons       =       384.00
     number of Kohn-Sham states=          220
     kinetic-energy cutoff     =     100.0000  Ry
     charge density cutoff     =     800.0000  Ry
     scf convergence threshold =      1.0E-08
     mixing beta               =       0.7000
     number of iterations used =            8  plain     mixing
     Exchange-correlation= PBE
                           (   1   4   3   4   0   0   0)

     Using Berry phase electric field
     In a.u.(Ry)  cartesian system of reference
        0.0001000000
        0.0000000000
        0.0000000000
     In a.u.(Ry)  crystal system of reference
        0.0001000000
        0.0000000000
        0.0000000000
     Number of iterative cycles:   1

     celldm(1)=  18.841714  celldm(2)=   0.866025  celldm(3)=   1.098936
     celldm(4)=   0.000000  celldm(5)=   0.000000  celldm(6)=   0.000000

     crystal axes: (cart. coord. in units of alat)
               a(1) = (   1.000000   0.000000   0.000000 )
               a(2) = (   0.000000   0.866025   0.000000 )
               a(3) = (   0.000000   0.000000   1.098936 )

     reciprocal axes: (cart. coord. in units 2 pi/alat)
               b(1) = (  1.000000  0.000000  0.000000 )
               b(2) = (  0.000000  1.154701  0.000000 )
               b(3) = (  0.000000  0.000000  0.909971 )

     PseudoPot. # 1 for Si read from file:
     /n/holyscratch01/kozinsky_lab/sfalletta/QE/Inputs/Si.upf
     MD5 check sum: 1e49d63d1c5892e9c2567cdfc797a7ef
     Pseudo is Norm-conserving + core correction, Zval =  4.0
     Generated using ONCVPSP code by D. R. Hamann
     Using radial grid of 1510 points,  6 beta functions with:
                l(1) =   0
                l(2) =   0
                l(3) =   1
                l(4) =   1
                l(5) =   2
                l(6) =   2

     PseudoPot. # 2 for O  read from file:
     /n/holyscratch01/kozinsky_lab/sfalletta/QE/Inputs/O.upf
     MD5 check sum: e161f86cb4953fdc9aae83e76c3f29b8
     Pseudo is Norm-conserving + core correction, Zval =  6.0
     Generated using ONCVPSP code by D. R. Hamann
     Using radial grid of  936 points,  5 beta functions with:
                l(1) =   0
                l(2) =   0
                l(3) =   1
                l(4) =   1
                l(5) =   2

     atomic species   valence    mass     pseudopotential
        Si             4.00    28.08550     Si( 1.00)
        O              6.00    15.99900     O ( 1.00)

     No symmetry found

   Cartesian axes

     site n.     atom                  positions (alat units)
         1           Si  tau(   1) = (   0.8841790   0.2115197   0.4435277  )
         2           Si  tau(   2) = (   0.1360088   0.2222864   0.2853458  )
         3           Si  tau(   3) = (   0.2218812   0.8562469   0.0885200  )
         4           O   tau(   4) = (   0.9308211   0.2918639   0.0348738  )
         5           O   tau(   5) = (   0.0934266   0.3688612   0.2281015  )
         6           O   tau(   6) = (   0.0148497   0.1768197   0.3646007  )
         7           O   tau(   7) = (   0.1600976   0.1287525   0.1607726  )
         8           O   tau(   8) = (   0.2613913   0.2713476   0.3654823  )
         9           O   tau(   9) = (   0.3460472   0.0856930   0.5255348  )
        10           Si  tau(  10) = (   0.9033985   0.1907196   1.0162873  )
        11           Si  tau(  11) = (   0.1391701   0.2040026   0.8311631  )
        12           Si  tau(  12) = (   0.2573525   0.0056010   0.6344760  )
        13           O   tau(  13) = (   0.8968923   0.3366024   0.5409982  )
        14           O   tau(  14) = (   0.0687931   0.3117724   0.7281955  )
        15           O   tau(  15) = (   0.0248331   0.1502667   0.9275846  )
        16           O   tau(  16) = (   0.2235411   0.0567707   0.7785986  )
        17           O   tau(  17) = (   0.2659196   0.2933944   0.9161881  )
        18           O   tau(  18) = (   0.3170369   0.0743158   1.0630748  )
        19           Si  tau(  19) = (   0.8516604   0.6618735   0.2663579  )
        20           Si  tau(  20) = (   0.9944742   0.4227857   0.1061941  )
        21           O   tau(  21) = (   0.8018931   0.8022963   0.2069142  )
        22           O   tau(  22) = (   0.8974831   0.5383926   0.1567598  )
        23           O   tau(  23) = (   0.9984479   0.6938415   0.3716775  )
        24           O   tau(  24) = (   0.0809499   0.5007940   0.5494781  )
        25           Si  tau(  25) = (   0.8676133   0.6384507   0.8159685  )
        26           Si  tau(  26) = (   0.9867545   0.4246502   0.6473157  )
        27           O   tau(  27) = (   0.8422788   0.7775415   0.7234786  )
        28           O   tau(  28) = (   0.8983566   0.5249089   0.7197837  )
        29           O   tau(  29) = (   0.9673003   0.6471272   0.9456075  )
        30           O   tau(  30) = (   0.1061179   0.5000669   0.0050833  )
        31           Si  tau(  31) = (   0.3868902   0.2164432   0.4376344  )
        32           Si  tau(  32) = (   0.6446328   0.2189024   0.2674592  )
        33           Si  tau(  33) = (   0.7507768   0.0033077   0.0745000  )
        34           O   tau(  34) = (   0.4104405   0.3475095   0.0298776  )
        35           O   tau(  35) = (   0.5991050   0.3664401   0.2028683  )
        36           O   tau(  36) = (   0.5042362   0.1512355   0.3470391  )
        37           O   tau(  37) = (   0.6660508   0.1183098   0.1433965  )
        38           O   tau(  38) = (   0.7709451   0.2378180   0.3459700  )
        39           O   tau(  39) = (   0.8411716   0.0795476   0.5353827  )
        40           Si  tau(  40) = (   0.3798325   0.2447875   1.0137699  )
        41           Si  tau(  41) = (   0.6482425   0.2420906   0.8386110  )
        42           Si  tau(  42) = (   0.7591926   0.0106095   0.6424946  )
        43           O   tau(  43) = (   0.4187709   0.3316438   0.5574546  )
        44           O   tau(  44) = (   0.6234416   0.3501984   0.7148833  )
        45           O   tau(  45) = (   0.5139708   0.2139188   0.9194135  )
        46           O   tau(  46) = (   0.6861168   0.0989839   0.7499133  )
        47           O   tau(  47) = (   0.7973337   0.2544539   0.9277761  )
        48           O   tau(  48) = (   0.8519542   0.0540641   1.0663444  )
        49           Si  tau(  49) = (   0.1073626   0.6483458   0.4707929  )
        50           Si  tau(  50) = (   0.3514049   0.6648743   0.2817111  )
        51           Si  tau(  51) = (   0.5190647   0.4416472   0.1005606  )
        52           O   tau(  52) = (   0.1203748   0.7609367   0.0117073  )
        53           O   tau(  53) = (   0.2862986   0.7814600   0.1969449  )
        54           O   tau(  54) = (   0.2476810   0.6222691   0.3946360  )
        55           O   tau(  55) = (   0.4304463   0.5683416   0.1718782  )
        56           O   tau(  56) = (   0.4862312   0.6985644   0.3702934  )
        57           O   tau(  57) = (   0.5687648   0.5330479   0.5371780  )
        58           Si  tau(  58) = (   0.1019757   0.6316106   1.0197174  )
        59           Si  tau(  59) = (   0.3706355   0.6428677   0.8062178  )
        60           Si  tau(  60) = (   0.5203816   0.4265157   0.6439699  )
        61           O   tau(  61) = (   0.1274837   0.7858289   0.5587173  )
        62           O   tau(  62) = (   0.3606692   0.7487659   0.6915106  )
        63           O   tau(  63) = (   0.2350760   0.5985564   0.9173585  )
        64           O   tau(  64) = (   0.4236122   0.5054708   0.7534116  )
        65           O   tau(  65) = (   0.4768336   0.6816356   0.9158240  )
        66           O   tau(  66) = (   0.5951865   0.5237415   1.0898234  )
        67           Si  tau(  67) = (   0.6196885   0.6595226   0.4531891  )
        68           O   tau(  68) = (   0.6371378   0.7782235   0.0078980  )
        69           O   tau(  69) = (   0.7360536   0.6221939   0.3603382  )
        70           Si  tau(  70) = (   0.6084956   0.6623429   1.0006945  )
        71           O   tau(  71) = (   0.6469426   0.7727234   0.5580674  )
        72           O   tau(  72) = (   0.7217676   0.6221518   0.8881807  )

     number of k points=     8
                       cart. coord. in units 2pi/alat
        k(    1) = (   0.0000000   0.0000000   0.0000000), wk =   0.2500000
        k(    2) = (   0.0000000   0.0000000   0.4549855), wk =   0.2500000
        k(    3) = (   0.0000000   0.5773503   0.0000000), wk =   0.2500000
        k(    4) = (   0.0000000   0.5773503   0.4549855), wk =   0.2500000
        k(    5) = (   0.5000000   0.0000000   0.0000000), wk =   0.2500000
        k(    6) = (   0.5000000   0.0000000   0.4549855), wk =   0.2500000
        k(    7) = (   0.5000000   0.5773503   0.0000000), wk =   0.2500000
        k(    8) = (   0.5000000   0.5773503   0.4549855), wk =   0.2500000

     Initial potential from superposition of free atoms

     starting charge     383.9851, renormalised to     384.0000
     Starting wfcs are  288 randomized atomic wfcs

     Self-consistent Calculation

     iteration #  1     ecut=   100.00 Ry     beta= 0.70
     Davidson diagonalization with overlap
     ethr =  1.00E-02,  avg # of iterations =  3.0

     Expectation value of exp(iGx):   (7.28903472896427485E-002,2.89978498956102865E-002)   1.0000000000000000
     Electronic Dipole per cell (Ry a.u.)   3.2114701593519497
     Ionic Dipole per cell (Ry a.u.)   5220.7307615604614

[...]

     Expectation value of exp(iGx):       (0.12000636368584276,-3.94553011726642752E-003)   1.0989361747729789
     Electronic Dipole per cell (Ry a.u.) -0.30633927936383964
     Ionic Dipole per cell (Ry a.u.)   5446.6758445586356
Electronic Dipole on Cartesian axes
           1   3.2114701593519497
           2   8.6549380031568450
           3 -0.30633927936383964
Ionic Dipole on Cartesian axes
           1   5220.7307615604614
           2   4333.8671907424050
           3   5446.6758445586356

     total energy              =   -1789.12557445 Ry
     estimated scf accuracy    <      19.87196327 Ry

[...]

     iteration #  8     ecut=   100.00 Ry     beta= 0.70
     Davidson diagonalization with overlap
     c_bands:  1 eigenvalues not converged
     ethr =  9.12E-08,  avg # of iterations = 15.6

[...]

     iteration # 12     ecut=   100.00 Ry     beta= 0.70
     Davidson diagonalization with overlap
     c_bands:  1 eigenvalues not converged
     c_bands:  1 eigenvalues not converged
     c_bands:  1 eigenvalues not converged
     c_bands:  1 eigenvalues not converged
     ethr =  1.23E-11,  avg # of iterations = 19.5

[...]

     total energy              =   -1797.27133829 Ry
     estimated scf accuracy    <       0.00000002 Ry

     iteration # 13     ecut=   100.00 Ry     beta= 0.70
     Davidson diagonalization with overlap
     ethr =  4.98E-12,  avg # of iterations =  5.8

[...]

     Expectation value of exp(iGx):   (6.99304857031304763E-003,1.36095402590753183E-002)  0.86602540378443849
     Electronic Dipole per cell (Ry a.u.)   8.0516194332678825
     Ionic Dipole per cell (Ry a.u.)   4333.8671907424050

     Expectation value of exp(iGx):  (7.41281313024525212E-002,-2.36107537151968375E-003)   1.0989361747729789
     Electronic Dipole per cell (Ry a.u.) -0.29678230810063255
     Ionic Dipole per cell (Ry a.u.)   5446.6758445586356
Electronic Dipole on Cartesian axes
           1   3.1054028622483378
           2   8.0516194332678825
           3 -0.29678230810063255
Ionic Dipole on Cartesian axes
           1   5220.7307615604614
           2   4333.8671907424050
           3   5446.6758445586356

     End of self-consistent calculation

          k = 0.0000 0.0000 0.0000 (107453 PWs)   bands (ev):

   -17.9840 -17.7252 -17.6495 -17.2941 -17.1771 -17.0419 -17.0115 -16.8722
   -16.7855 -16.6624 -16.5565 -16.4687 -16.3932 -16.2408 -16.2259 -16.1512
   -16.1155 -16.0755 -15.8980 -15.8557 -15.7864 -15.6885 -15.6308 -15.5783
   -15.5249 -15.4606 -15.3987 -15.3124 -15.2084 -15.1766 -15.0985 -15.0728
   -15.0494 -14.9913 -14.9291 -14.8710 -14.7960 -14.6273 -14.5847 -14.5087
   -14.4909 -14.3730 -14.2312 -14.2107 -14.0609 -13.6138 -13.1825 -12.9794
    -7.6817  -7.0201  -6.9080  -6.5641  -6.5192  -6.2948  -6.2238  -6.1220
    -5.9596  -5.5913  -5.4212  -5.3272  -5.2525  -5.0983  -5.0890  -4.6492
    -4.6262  -4.4664  -4.3758  -4.1911  -4.0905  -3.9723  -3.9611  -3.8695
    -3.7887  -3.6603  -3.6040  -3.4573  -3.4455  -3.3782  -3.3057  -3.2109
    -3.1679  -3.0954  -3.0740  -2.9993  -2.8918  -2.8199  -2.7038  -2.5940
    -2.5573  -2.4952  -2.3862  -2.2749  -2.1750  -2.0154  -1.9073  -1.7471
    -1.6944  -1.5356  -1.4670  -1.3983  -1.3864  -1.2717  -1.2020  -1.1574
    -1.1543  -1.0707  -1.0268  -1.0062  -0.9111  -0.8905  -0.8465  -0.8192
    -0.7765  -0.7332  -0.7092  -0.6539  -0.6334  -0.5274  -0.4852  -0.3920
    -0.3672  -0.3254  -0.2542  -0.2112  -0.1589  -0.1475  -0.0377  -0.0248
     0.0084   0.0265   0.0518   0.1013   0.1138   0.1691   0.2301   0.2406
     0.2518   0.2887   0.3390   0.3560   0.4276   0.4662   0.4757   0.5584
     0.5793   0.6162   0.6550   0.6751   0.7308   0.7595   0.8310   0.8510
     0.8896   0.9631   0.9735   1.0075   1.0304   1.0858   1.1272   1.1814
     1.1980   1.2298   1.2914   1.3399   1.3652   1.4365   1.4812   1.5105
     1.5735   1.6023   1.6284   1.6874   1.7086   1.7856   1.8211   1.8698
     1.9469   2.0205   2.0682   2.0843   2.1256   2.1693   2.2659   2.3182
     2.4640   2.6157   2.7648   2.8003   2.9026   2.9875   3.0345   3.1595
     7.4912   8.6186   8.8431   9.1667   9.5576   9.6513   9.6952  10.1123
    10.1950  10.2628  10.4388  10.4608  10.5692  10.6483  10.7455  10.7992
    10.8022  10.9041  10.9661  11.0115  11.0541  11.1615  11.1949  11.3527
    11.4373  11.5059  11.5510  11.6073

[...]

          k = 0.5000 0.5774 0.4550 (107528 PWs)   bands (ev):

   -17.9621 -17.7343 -17.6379 -17.3423 -17.1874 -17.0578 -17.0438 -16.8443
   -16.7711 -16.6295 -16.4981 -16.4818 -16.3610 -16.3015 -16.2183 -16.1697
   -16.1595 -16.0675 -15.9154 -15.8400 -15.7660 -15.6777 -15.5934 -15.5881
   -15.5114 -15.4602 -15.3960 -15.3084 -15.2393 -15.1983 -15.1165 -15.0466
   -15.0038 -14.9747 -14.9013 -14.8941 -14.8115 -14.6331 -14.5872 -14.5269
   -14.4966 -14.3737 -14.2471 -14.2136 -14.0590 -13.6185 -13.1854 -12.9810
    -7.4048  -7.0727  -6.9065  -6.7890  -6.5076  -6.4595  -6.4003  -6.0551
    -5.7395  -5.5473  -5.3617  -5.2703  -5.1864  -5.1834  -5.0609  -4.9041
    -4.5881  -4.4500  -4.3872  -4.2583  -4.0982  -3.9690  -3.9235  -3.8202
    -3.7954  -3.6324  -3.5705  -3.4730  -3.4583  -3.3554  -3.2772  -3.2048
    -3.1660  -3.0636  -3.0332  -2.9611  -2.8599  -2.7933  -2.6767  -2.6669
    -2.5824  -2.5371  -2.4582  -2.1665  -2.1350  -2.1241  -1.9345  -1.8063
    -1.5667  -1.5339  -1.4951  -1.4287  -1.4073  -1.2840  -1.2488  -1.1888
    -1.0836  -1.0733  -1.0250  -1.0068  -0.9226  -0.9062  -0.8656  -0.8088
    -0.7781  -0.6961  -0.6757  -0.5938  -0.5757  -0.5250  -0.4937  -0.4302
    -0.3817  -0.3128  -0.2638  -0.2167  -0.2114  -0.1591  -0.1218  -0.0650
    -0.0266   0.0188   0.0668   0.0920   0.1245   0.1812   0.2495   0.2642
     0.3031   0.3508   0.3803   0.3948   0.4348   0.4390   0.4974   0.5419
     0.5718   0.6457   0.6479   0.6737   0.6922   0.7361   0.7822   0.8027
     0.8414   0.9274   1.0038   1.0272   1.0394   1.1048   1.1533   1.1765
     1.2080   1.2689   1.2773   1.3294   1.3369   1.4395   1.4932   1.5071
     1.5704   1.6120   1.6483   1.6618   1.6984   1.7963   1.8473   1.9011
     1.9251   2.0121   2.0656   2.0886   2.1410   2.2102   2.2620   2.3497
     2.5023   2.5515   2.8035   2.8329   2.8545   2.9276   2.9957   3.1631
     8.3037   8.6001   8.7651   8.9926   9.1632   9.3181   9.6317   9.8292
    10.0379  10.1438  10.3599  10.5376  10.6347  10.6548  10.7272  10.8388
    10.8974  10.9748  11.0324  11.1038  11.1302  11.2205  11.2517  11.3134
    11.4195  11.5132  11.5522  11.6339

     highest occupied, lowest unoccupied level (ev):     3.1694    7.4912

!    total energy              =   -1797.27133829 Ry
     estimated scf accuracy    <          1.8E-09 Ry

     The total energy is the sum of the following terms:
     one-electron contribution =    -908.16241018 Ry
     hartree contribution      =     658.74913376 Ry
     xc contribution           =    -486.18455784 Ry
     ewald contribution        =   -1061.15112041 Ry

     convergence has been achieved in  13 iterations

     Forces acting on atoms (cartesian axes, Ry/au):

     atom    1 type  1   force =     0.06068275   -0.06796261    0.18978718
     atom    2 type  1   force =     0.04144029    0.10631697   -0.13886401
     atom    3 type  1   force =    -0.02917146    0.29856200   -0.26003719
     atom    4 type  2   force =     0.00730259    0.05818394    0.06206141
     atom    5 type  2   force =    -0.06535774    0.04961635   -0.05050736
     atom    6 type  2   force =    -0.07223534   -0.09484772    0.08680247
     atom    7 type  2   force =     0.00139339   -0.08122295   -0.04189588
     atom    8 type  2   force =     0.00481863    0.02272975   -0.00758465
     atom    9 type  2   force =    -0.05055044   -0.02501276    0.03349259
     atom   10 type  1   force =     0.04738744    0.02755446    0.02637181
     atom   11 type  1   force =     0.14073377    0.02125180    0.02288820
     atom   12 type  1   force =     0.04384917   -0.18299862   -0.09133735
     atom   13 type  2   force =    -0.01774075    0.02222038    0.02779444
     atom   14 type  2   force =     0.03938781   -0.04212507    0.04393225
     atom   15 type  2   force =     0.08753005   -0.02237108   -0.03549255
     atom   16 type  2   force =    -0.11889263    0.18757848    0.06916590
     atom   17 type  2   force =    -0.13546915   -0.03100809   -0.09496941
     atom   18 type  2   force =     0.01601845    0.05200920    0.04343726
     atom   19 type  1   force =     0.21135823   -0.03121957    0.00834636
     atom   20 type  1   force =     0.15867768   -0.00689743    0.00142002
     atom   21 type  2   force =     0.09727995   -0.06047782    0.03602157
     atom   22 type  2   force =    -0.08410984    0.09357038    0.06726415
     atom   23 type  2   force =    -0.21430927   -0.00730514   -0.17098069
     atom   24 type  2   force =     0.08440031    0.13070264   -0.06534387
     atom   25 type  1   force =    -0.11112248    0.20832917    0.11276340
     atom   26 type  1   force =     0.04391431   -0.16555598   -0.11328749
     atom   27 type  2   force =     0.15693572   -0.16610063    0.12813018
     atom   28 type  2   force =    -0.05336254   -0.03502363    0.00817684
     atom   29 type  2   force =    -0.10988878    0.02309200   -0.10550768
     atom   30 type  2   force =    -0.06668451   -0.11248283    0.08747006
     atom   31 type  1   force =     0.08762052    0.00612199    0.16006726
     atom   32 type  1   force =    -0.26451386   -0.03290277   -0.11931553
     atom   33 type  1   force =    -0.09927211   -0.00316554    0.00239326
     atom   34 type  2   force =    -0.01969935   -0.02614633    0.01293640
     atom   35 type  2   force =     0.13008783   -0.13410561    0.15666751
     atom   36 type  2   force =     0.10352111    0.07595620   -0.04518766
     atom   37 type  2   force =    -0.03447316    0.08610744    0.00452274
     atom   38 type  2   force =     0.00654252    0.05865576   -0.01306862
     atom   39 type  2   force =     0.10484879    0.12042694   -0.14203417
     atom   40 type  1   force =    -0.02706447   -0.19972294    0.00626820
     atom   41 type  1   force =     0.10947334   -0.10080078   -0.06464601
     atom   42 type  1   force =    -0.19616118   -0.10608439   -0.02639886
     atom   43 type  2   force =     0.00497797   -0.06088039   -0.05632586
     atom   44 type  2   force =     0.24521250   -0.17101250    0.20270462
     atom   45 type  2   force =    -0.00062452    0.01281190    0.03814083
     atom   46 type  2   force =    -0.07220373    0.11718804    0.07485423
     atom   47 type  2   force =    -0.24162178    0.11274364   -0.16257969
     atom   48 type  2   force =     0.00661501   -0.10684211    0.02727833
     atom   49 type  1   force =     0.08527530   -0.04168045    0.07282109
     atom   50 type  1   force =     0.16729372   -0.07979047    0.02498176
     atom   51 type  1   force =    -0.18786792    0.19817733   -0.03981762
     atom   52 type  2   force =    -0.02771129    0.03695346    0.01573730
     atom   53 type  2   force =     0.12070497   -0.09667447    0.17645045
     atom   54 type  2   force =    -0.01396450   -0.03793583   -0.00724515
     atom   55 type  2   force =    -0.03970122   -0.05260516   -0.00002928
     atom   56 type  2   force =    -0.01492306    0.04854635   -0.02385432
     atom   57 type  2   force =     0.05169721   -0.03150020   -0.00038009
     atom   58 type  1   force =     0.20783828   -0.01424865   -0.09145106
     atom   59 type  1   force =    -0.12004784   -0.04282447    0.12652643
     atom   60 type  1   force =    -0.29162881    0.17740480   -0.13620726
     atom   61 type  2   force =     0.05678830    0.04341060    0.06333020
     atom   62 type  2   force =    -0.04046249    0.05688554   -0.07238473
     atom   63 type  2   force =    -0.00428136    0.07045498   -0.05738622
     atom   64 type  2   force =     0.03130664   -0.10585013   -0.05941217
     atom   65 type  2   force =     0.03152457    0.07589837    0.05926352
     atom   66 type  2   force =     0.06872182    0.01732595   -0.05869538
     atom   67 type  1   force =    -0.19199598    0.02868513    0.07168365
     atom   68 type  2   force =     0.00386114   -0.00468915   -0.02616095
     atom   69 type  2   force =     0.05405376   -0.09187414   -0.02881481
     atom   70 type  1   force =     0.01255336   -0.08949846   -0.02843216
     atom   71 type  2   force =     0.07435757    0.11818411    0.07115966
     atom   72 type  2   force =     0.00912679   -0.00020915    0.01252223

     Total force =     1.456545     Total SCF correction =     0.000052

     Computing stress (Cartesian axis) and pressure

          total   stress  (Ry/bohr**3)                   (kbar)     P=       93.54
   0.00072273  -0.00018528   0.00017066          106.32      -27.26       25.10
  -0.00018528   0.00045638  -0.00019271          -27.26       67.14      -28.35
   0.00017066  -0.00019271   0.00072842           25.10      -28.35      107.15

     Writing all to output data dir /n/holyscratch01/kozinsky_lab/sfalletta/QE/SiO2/SiO2-T600-Ex-0/SiO2.save/

     General routines

     Parallel routines

     Electric-field routines

   This run was terminated on:  18:39:51   2Feb2024

   JOB DONE.